    1C
    1UUSER                                                              
    1UDATE              26.may.2016                                     
    1UTIME              22:43:11                                        
    1UHOST                                                              
    1UPGM               CalculiX                                        
    1UVERSION           Version 2.10                             
    1UCOMPILETIME       Sa 5. MÃ¤r 12:23:33 CET 2016                    
    1UDIR                                                               
    1UDBN                                                               
    1UMAT    1LEAF                                                      
    1UMAT    2STEEL                                                     
    2C                           360                                     1
 -1         1 0.00000E+00 2.00000E+01 5.00000E+00
 -1         2 0.00000E+00 2.00000E+01 0.00000E+00
 -1         3 5.00000E+01 2.00000E+01 0.00000E+00
 -1         4 5.00000E+01 2.00000E+01 5.00000E+00
 -1         5 0.00000E+00 0.00000E+00 5.00000E+00
 -1         6 0.00000E+00 0.00000E+00 0.00000E+00
 -1         7 5.00000E+01 0.00000E+00 0.00000E+00
 -1         8 5.00000E+01 0.00000E+00 5.00000E+00
 -1         9 0.00000E+00 2.00000E+01 2.50000E+00
 -1        10 2.50000E+01 2.00000E+01 0.00000E+00
 -1        11 5.00000E+01 2.00000E+01 2.50000E+00
 -1        12 2.50000E+01 2.00000E+01 5.00000E+00
 -1        13 0.00000E+00 1.00000E+01 5.00000E+00
 -1        14 0.00000E+00 1.00000E+01 0.00000E+00
 -1        15 5.00000E+01 1.00000E+01 0.00000E+00
 -1        16 5.00000E+01 1.00000E+01 5.00000E+00
 -1        17 0.00000E+00 0.00000E+00 2.50000E+00
 -1        18 2.50000E+01 0.00000E+00 0.00000E+00
 -1        19 5.00000E+01 0.00000E+00 2.50000E+00
 -1        20 2.50000E+01 0.00000E+00 5.00000E+00
 -1        41 0.00000E+00 2.00000E+01 1.00000E+01
 -1        42 0.00000E+00 2.00000E+01 5.00000E+00
 -1        43 3.33333E+01 2.00000E+01 5.00000E+00
 -1        44 3.33333E+01 2.00000E+01 1.00000E+01
 -1        45 0.00000E+00 0.00000E+00 1.00000E+01
 -1        46 0.00000E+00 0.00000E+00 5.00000E+00
 -1        47 3.33333E+01 0.00000E+00 5.00000E+00
 -1        48 3.33333E+01 0.00000E+00 1.00000E+01
 -1        49 0.00000E+00 2.00000E+01 7.50000E+00
 -1        50 1.66667E+01 2.00000E+01 5.00000E+00
 -1        51 3.33333E+01 2.00000E+01 7.50000E+00
 -1        52 1.66667E+01 2.00000E+01 1.00000E+01
 -1        53 0.00000E+00 1.00000E+01 1.00000E+01
 -1        54 0.00000E+00 1.00000E+01 5.00000E+00
 -1        55 3.33333E+01 1.00000E+01 5.00000E+00
 -1        56 3.33333E+01 1.00000E+01 1.00000E+01
 -1        57 0.00000E+00 0.00000E+00 7.50000E+00
 -1        58 1.66667E+01 0.00000E+00 5.00000E+00
 -1        59 3.33333E+01-1.77636E-15 7.50000E+00
 -1        60 1.66667E+01 0.00000E+00 1.00000E+01
 -1        61 6.66667E+01 2.00000E+01 5.00000E+00
 -1        62 6.66667E+01 2.00000E+01 1.00000E+01
 -1        63 6.66667E+01 0.00000E+00 5.00000E+00
 -1        64 6.66667E+01 0.00000E+00 1.00000E+01
 -1        65 5.00000E+01 2.00000E+01 5.00000E+00
 -1        66 6.66667E+01 2.00000E+01 7.50000E+00
 -1        67 5.00000E+01 2.00000E+01 1.00000E+01
 -1        68 6.66667E+01 1.00000E+01 5.00000E+00
 -1        69 6.66667E+01 1.00000E+01 1.00000E+01
 -1        70 5.00000E+01 0.00000E+00 5.00000E+00
 -1        71 6.66667E+01 1.77636E-15 7.50000E+00
 -1        72 5.00000E+01 0.00000E+00 1.00000E+01
 -1        73 1.00000E+02 2.00000E+01 5.00000E+00
 -1        74 1.00000E+02 2.00000E+01 1.00000E+01
 -1        75 1.00000E+02 0.00000E+00 5.00000E+00
 -1        76 1.00000E+02 0.00000E+00 1.00000E+01
 -1        77 8.33333E+01 2.00000E+01 5.00000E+00
 -1        78 1.00000E+02 2.00000E+01 7.50000E+00
 -1        79 8.33333E+01 2.00000E+01 1.00000E+01
 -1        80 1.00000E+02 1.00000E+01 5.00000E+00
 -1        81 1.00000E+02 1.00000E+01 1.00000E+01
 -1        82 8.33333E+01 0.00000E+00 5.00000E+00
 -1        83 1.00000E+02 0.00000E+00 7.50000E+00
 -1        84 8.33333E+01 0.00000E+00 1.00000E+01
 -1       105 0.00000E+00 2.00000E+01 1.50000E+01
 -1       106 0.00000E+00 2.00000E+01 1.00000E+01
 -1       107 3.75000E+01 2.00000E+01 1.00000E+01
 -1       108 3.75000E+01 2.00000E+01 1.50000E+01
 -1       109 0.00000E+00 0.00000E+00 1.50000E+01
 -1       110 0.00000E+00 0.00000E+00 1.00000E+01
 -1       111 3.75000E+01 0.00000E+00 1.00000E+01
 -1       112 3.75000E+01 0.00000E+00 1.50000E+01
 -1       113 0.00000E+00 2.00000E+01 1.25000E+01
 -1       114 1.87500E+01 2.00000E+01 1.00000E+01
 -1       115 3.75000E+01 2.00000E+01 1.25000E+01
 -1       116 1.87500E+01 2.00000E+01 1.50000E+01
 -1       117 0.00000E+00 1.00000E+01 1.50000E+01
 -1       118 0.00000E+00 1.00000E+01 1.00000E+01
 -1       119 3.75000E+01 1.00000E+01 1.00000E+01
 -1       120 3.75000E+01 1.00000E+01 1.50000E+01
 -1       121 0.00000E+00 0.00000E+00 1.25000E+01
 -1       122 1.87500E+01 0.00000E+00 1.00000E+01
 -1       123 3.75000E+01 0.00000E+00 1.25000E+01
 -1       124 1.87500E+01 0.00000E+00 1.50000E+01
 -1       125 7.50000E+01 2.00000E+01 1.00000E+01
 -1       126 7.50000E+01 2.00000E+01 1.50000E+01
 -1       127 7.50000E+01 0.00000E+00 1.00000E+01
 -1       128 7.50000E+01 0.00000E+00 1.50000E+01
 -1       129 5.62500E+01 2.00000E+01 1.00000E+01
 -1       130 7.50000E+01 2.00000E+01 1.25000E+01
 -1       131 5.62500E+01 2.00000E+01 1.50000E+01
 -1       132 7.50000E+01 1.00000E+01 1.00000E+01
 -1       133 7.50000E+01 1.00000E+01 1.50000E+01
 -1       134 5.62500E+01 0.00000E+00 1.00000E+01
 -1       135 7.50000E+01 0.00000E+00 1.25000E+01
 -1       136 5.62500E+01 0.00000E+00 1.50000E+01
 -1       137 1.12500E+02 2.00000E+01 1.00000E+01
 -1       138 1.12500E+02 2.00000E+01 1.50000E+01
 -1       139 1.12500E+02 0.00000E+00 1.00000E+01
 -1       140 1.12500E+02 0.00000E+00 1.50000E+01
 -1       141 9.37500E+01 2.00000E+01 1.00000E+01
 -1       142 1.12500E+02 2.00000E+01 1.25000E+01
 -1       143 9.37500E+01 2.00000E+01 1.50000E+01
 -1       144 1.12500E+02 1.00000E+01 1.00000E+01
 -1       145 1.12500E+02 1.00000E+01 1.50000E+01
 -1       146 9.37500E+01 0.00000E+00 1.00000E+01
 -1       147 1.12500E+02 0.00000E+00 1.25000E+01
 -1       148 9.37500E+01 0.00000E+00 1.50000E+01
 -1       149 1.50000E+02 2.00000E+01 1.00000E+01
 -1       150 1.50000E+02 2.00000E+01 1.50000E+01
 -1       151 1.50000E+02 0.00000E+00 1.00000E+01
 -1       152 1.50000E+02 0.00000E+00 1.50000E+01
 -1       153 1.31250E+02 2.00000E+01 1.00000E+01
 -1       154 1.50000E+02 2.00000E+01 1.25000E+01
 -1       155 1.31250E+02 2.00000E+01 1.50000E+01
 -1       156 1.50000E+02 1.00000E+01 1.00000E+01
 -1       157 1.50000E+02 1.00000E+01 1.50000E+01
 -1       158 1.31250E+02 0.00000E+00 1.00000E+01
 -1       159 1.50000E+02 0.00000E+00 1.25000E+01
 -1       160 1.31250E+02 0.00000E+00 1.50000E+01
 -1       181 0.00000E+00 2.00000E+01 2.00000E+01
 -1       182 0.00000E+00 2.00000E+01 1.50000E+01
 -1       183 4.00000E+01 2.00000E+01 1.50000E+01
 -1       184 4.00000E+01 2.00000E+01 2.00000E+01
 -1       185 0.00000E+00 0.00000E+00 2.00000E+01
 -1       186 0.00000E+00 0.00000E+00 1.50000E+01
 -1       187 4.00000E+01 0.00000E+00 1.50000E+01
 -1       188 4.00000E+01 0.00000E+00 2.00000E+01
 -1       189 0.00000E+00 2.00000E+01 1.75000E+01
 -1       190 2.00000E+01 2.00000E+01 1.50000E+01
 -1       191 4.00000E+01 2.00000E+01 1.75000E+01
 -1       192 2.00000E+01 2.00000E+01 2.00000E+01
 -1       193 0.00000E+00 1.00000E+01 2.00000E+01
 -1       194 0.00000E+00 1.00000E+01 1.50000E+01
 -1       195 4.00000E+01 1.00000E+01 1.50000E+01
 -1       196 4.00000E+01 1.00000E+01 2.00000E+01
 -1       197 0.00000E+00 0.00000E+00 1.75000E+01
 -1       198 2.00000E+01 0.00000E+00 1.50000E+01
 -1       199 4.00000E+01-1.77636E-15 1.75000E+01
 -1       200 2.00000E+01 0.00000E+00 2.00000E+01
 -1       201 8.00000E+01 2.00000E+01 1.50000E+01
 -1       202 8.00000E+01 2.00000E+01 2.00000E+01
 -1       203 8.00000E+01 0.00000E+00 1.50000E+01
 -1       204 8.00000E+01 0.00000E+00 2.00000E+01
 -1       205 6.00000E+01 2.00000E+01 1.50000E+01
 -1       206 8.00000E+01 2.00000E+01 1.75000E+01
 -1       207 6.00000E+01 2.00000E+01 2.00000E+01
 -1       208 8.00000E+01 1.00000E+01 1.50000E+01
 -1       209 8.00000E+01 1.00000E+01 2.00000E+01
 -1       210 6.00000E+01 0.00000E+00 1.50000E+01
 -1       211 8.00000E+01-1.77636E-15 1.75000E+01
 -1       212 6.00000E+01 0.00000E+00 2.00000E+01
 -1       213 1.20000E+02 2.00000E+01 1.50000E+01
 -1       214 1.20000E+02 2.00000E+01 2.00000E+01
 -1       215 1.20000E+02 0.00000E+00 1.50000E+01
 -1       216 1.20000E+02 0.00000E+00 2.00000E+01
 -1       217 1.00000E+02 2.00000E+01 1.50000E+01
 -1       218 1.20000E+02 2.00000E+01 1.75000E+01
 -1       219 1.00000E+02 2.00000E+01 2.00000E+01
 -1       220 1.20000E+02 1.00000E+01 1.50000E+01
 -1       221 1.20000E+02 1.00000E+01 2.00000E+01
 -1       222 1.00000E+02 0.00000E+00 1.50000E+01
 -1       223 1.20000E+02 0.00000E+00 1.75000E+01
 -1       224 1.00000E+02 0.00000E+00 2.00000E+01
 -1       225 1.60000E+02 2.00000E+01 1.50000E+01
 -1       226 1.60000E+02 2.00000E+01 2.00000E+01
 -1       227 1.60000E+02 0.00000E+00 1.50000E+01
 -1       228 1.60000E+02 0.00000E+00 2.00000E+01
 -1       229 1.40000E+02 2.00000E+01 1.50000E+01
 -1       230 1.60000E+02 2.00000E+01 1.75000E+01
 -1       231 1.40000E+02 2.00000E+01 2.00000E+01
 -1       232 1.60000E+02 1.00000E+01 1.50000E+01
 -1       233 1.60000E+02 1.00000E+01 2.00000E+01
 -1       234 1.40000E+02 0.00000E+00 1.50000E+01
 -1       235 1.60000E+02 0.00000E+00 1.75000E+01
 -1       236 1.40000E+02 0.00000E+00 2.00000E+01
 -1       237 2.00000E+02 2.00000E+01 1.50000E+01
 -1       238 2.00000E+02 2.00000E+01 2.00000E+01
 -1       239 2.00000E+02 0.00000E+00 1.50000E+01
 -1       240 2.00000E+02 0.00000E+00 2.00000E+01
 -1       241 1.80000E+02 2.00000E+01 1.50000E+01
 -1       242 2.00000E+02 2.00000E+01 1.75000E+01
 -1       243 1.80000E+02 2.00000E+01 2.00000E+01
 -1       244 2.00000E+02 1.00000E+01 1.50000E+01
 -1       245 2.00000E+02 1.00000E+01 2.00000E+01
 -1       246 1.80000E+02 0.00000E+00 1.50000E+01
 -1       247 2.00000E+02 0.00000E+00 1.75000E+01
 -1       248 1.80000E+02 0.00000E+00 2.00000E+01
 -1       269 0.00000E+00 2.00000E+01 2.50000E+01
 -1       270 0.00000E+00 2.00000E+01 2.00000E+01
 -1       271 4.16667E+01 2.00000E+01 2.00000E+01
 -1       272 4.16667E+01 2.00000E+01 2.50000E+01
 -1       273 0.00000E+00 0.00000E+00 2.50000E+01
 -1       274 0.00000E+00 0.00000E+00 2.00000E+01
 -1       275 4.16667E+01 0.00000E+00 2.00000E+01
 -1       276 4.16667E+01 0.00000E+00 2.50000E+01
 -1       277 0.00000E+00 2.00000E+01 2.25000E+01
 -1       278 2.08333E+01 2.00000E+01 2.00000E+01
 -1       279 4.16667E+01 2.00000E+01 2.25000E+01
 -1       280 2.08333E+01 2.00000E+01 2.50000E+01
 -1       281 0.00000E+00 1.00000E+01 2.50000E+01
 -1       282 0.00000E+00 1.00000E+01 2.00000E+01
 -1       283 4.16667E+01 1.00000E+01 2.00000E+01
 -1       284 4.16667E+01 1.00000E+01 2.50000E+01
 -1       285 0.00000E+00 0.00000E+00 2.25000E+01
 -1       286 2.08333E+01 0.00000E+00 2.00000E+01
 -1       287 4.16667E+01 0.00000E+00 2.25000E+01
 -1       288 2.08333E+01 0.00000E+00 2.50000E+01
 -1       289 8.33333E+01 2.00000E+01 2.00000E+01
 -1       290 8.33333E+01 2.00000E+01 2.50000E+01
 -1       291 8.33333E+01 0.00000E+00 2.00000E+01
 -1       292 8.33333E+01 0.00000E+00 2.50000E+01
 -1       293 6.25000E+01 2.00000E+01 2.00000E+01
 -1       294 8.33333E+01 2.00000E+01 2.25000E+01
 -1       295 6.25000E+01 2.00000E+01 2.50000E+01
 -1       296 8.33333E+01 1.00000E+01 2.00000E+01
 -1       297 8.33333E+01 1.00000E+01 2.50000E+01
 -1       298 6.25000E+01 0.00000E+00 2.00000E+01
 -1       299 8.33333E+01 3.55271E-15 2.25000E+01
 -1       300 6.25000E+01 0.00000E+00 2.50000E+01
 -1       301 1.25000E+02 2.00000E+01 2.00000E+01
 -1       302 1.25000E+02 2.00000E+01 2.50000E+01
 -1       303 1.25000E+02 0.00000E+00 2.00000E+01
 -1       304 1.25000E+02 0.00000E+00 2.50000E+01
 -1       305 1.04167E+02 2.00000E+01 2.00000E+01
 -1       306 1.25000E+02 2.00000E+01 2.25000E+01
 -1       307 1.04167E+02 2.00000E+01 2.50000E+01
 -1       308 1.25000E+02 1.00000E+01 2.00000E+01
 -1       309 1.25000E+02 1.00000E+01 2.50000E+01
 -1       310 1.04167E+02 0.00000E+00 2.00000E+01
 -1       311 1.25000E+02 0.00000E+00 2.25000E+01
 -1       312 1.04167E+02 0.00000E+00 2.50000E+01
 -1       313 1.66667E+02 2.00000E+01 2.00000E+01
 -1       314 1.66667E+02 2.00000E+01 2.50000E+01
 -1       315 1.66667E+02 0.00000E+00 2.00000E+01
 -1       316 1.66667E+02 0.00000E+00 2.50000E+01
 -1       317 1.45833E+02 2.00000E+01 2.00000E+01
 -1       318 1.66667E+02 2.00000E+01 2.25000E+01
 -1       319 1.45833E+02 2.00000E+01 2.50000E+01
 -1       320 1.66667E+02 1.00000E+01 2.00000E+01
 -1       321 1.66667E+02 1.00000E+01 2.50000E+01
 -1       322 1.45833E+02 0.00000E+00 2.00000E+01
 -1       323 1.66667E+02 0.00000E+00 2.25000E+01
 -1       324 1.45833E+02 0.00000E+00 2.50000E+01
 -1       325 2.08333E+02 2.00000E+01 2.00000E+01
 -1       326 2.08333E+02 2.00000E+01 2.50000E+01
 -1       327 2.08333E+02 0.00000E+00 2.00000E+01
 -1       328 2.08333E+02 0.00000E+00 2.50000E+01
 -1       329 1.87500E+02 2.00000E+01 2.00000E+01
 -1       330 2.08333E+02 2.00000E+01 2.25000E+01
 -1       331 1.87500E+02 2.00000E+01 2.50000E+01
 -1       332 2.08333E+02 1.00000E+01 2.00000E+01
 -1       333 2.08333E+02 1.00000E+01 2.50000E+01
 -1       334 1.87500E+02 0.00000E+00 2.00000E+01
 -1       335 2.08333E+02 0.00000E+00 2.25000E+01
 -1       336 1.87500E+02 0.00000E+00 2.50000E+01
 -1       337 2.50000E+02 2.00000E+01 2.00000E+01
 -1       338 2.50000E+02 2.00000E+01 2.50000E+01
 -1       339 2.50000E+02 0.00000E+00 2.00000E+01
 -1       340 2.50000E+02 0.00000E+00 2.50000E+01
 -1       341 2.29167E+02 2.00000E+01 2.00000E+01
 -1       342 2.50000E+02 2.00000E+01 2.25000E+01
 -1       343 2.29167E+02 2.00000E+01 2.50000E+01
 -1       344 2.50000E+02 1.00000E+01 2.00000E+01
 -1       345 2.50000E+02 1.00000E+01 2.50000E+01
 -1       346 2.29167E+02 0.00000E+00 2.00000E+01
 -1       347 2.50000E+02 0.00000E+00 2.25000E+01
 -1       348 2.29167E+02 0.00000E+00 2.50000E+01
 -1       369 0.00000E+00 2.00000E+01 3.00000E+01
 -1       370 0.00000E+00 2.00000E+01 2.50000E+01
 -1       371 4.28571E+01 2.00000E+01 2.50000E+01
 -1       372 4.28571E+01 2.00000E+01 3.00000E+01
 -1       373 0.00000E+00 0.00000E+00 3.00000E+01
 -1       374 0.00000E+00 0.00000E+00 2.50000E+01
 -1       375 4.28571E+01 0.00000E+00 2.50000E+01
 -1       376 4.28571E+01 0.00000E+00 3.00000E+01
 -1       377 0.00000E+00 2.00000E+01 2.75000E+01
 -1       378 2.14286E+01 2.00000E+01 2.50000E+01
 -1       379 4.28571E+01 2.00000E+01 2.75000E+01
 -1       380 2.14286E+01 2.00000E+01 3.00000E+01
 -1       381 0.00000E+00 1.00000E+01 3.00000E+01
 -1       382 0.00000E+00 1.00000E+01 2.50000E+01
 -1       383 4.28571E+01 1.00000E+01 2.50000E+01
 -1       384 4.28571E+01 1.00000E+01 3.00000E+01
 -1       385 0.00000E+00 0.00000E+00 2.75000E+01
 -1       386 2.14286E+01 0.00000E+00 2.50000E+01
 -1       387 4.28571E+01 0.00000E+00 2.75000E+01
 -1       388 2.14286E+01 0.00000E+00 3.00000E+01
 -1       389 8.57143E+01 2.00000E+01 2.50000E+01
 -1       390 8.57143E+01 2.00000E+01 3.00000E+01
 -1       391 8.57143E+01 0.00000E+00 2.50000E+01
 -1       392 8.57143E+01 0.00000E+00 3.00000E+01
 -1       393 6.42857E+01 2.00000E+01 2.50000E+01
 -1       394 8.57143E+01 2.00000E+01 2.75000E+01
 -1       395 6.42857E+01 2.00000E+01 3.00000E+01
 -1       396 8.57143E+01 1.00000E+01 2.50000E+01
 -1       397 8.57143E+01 1.00000E+01 3.00000E+01
 -1       398 6.42857E+01 0.00000E+00 2.50000E+01
 -1       399 8.57143E+01-3.55271E-15 2.75000E+01
 -1       400 6.42857E+01 0.00000E+00 3.00000E+01
 -1       401 1.28571E+02 2.00000E+01 2.50000E+01
 -1       402 1.28571E+02 2.00000E+01 3.00000E+01
 -1       403 1.28571E+02 0.00000E+00 2.50000E+01
 -1       404 1.28571E+02 0.00000E+00 3.00000E+01
 -1       405 1.07143E+02 2.00000E+01 2.50000E+01
 -1       406 1.28571E+02 2.00000E+01 2.75000E+01
 -1       407 1.07143E+02 2.00000E+01 3.00000E+01
 -1       408 1.28571E+02 1.00000E+01 2.50000E+01
 -1       409 1.28571E+02 1.00000E+01 3.00000E+01
 -1       410 1.07143E+02 0.00000E+00 2.50000E+01
 -1       411 1.28571E+02 0.00000E+00 2.75000E+01
 -1       412 1.07143E+02 0.00000E+00 3.00000E+01
 -1       413 1.71429E+02 2.00000E+01 2.50000E+01
 -1       414 1.71429E+02 2.00000E+01 3.00000E+01
 -1       415 1.71429E+02 0.00000E+00 2.50000E+01
 -1       416 1.71429E+02 0.00000E+00 3.00000E+01
 -1       417 1.50000E+02 2.00000E+01 2.50000E+01
 -1       418 1.71429E+02 2.00000E+01 2.75000E+01
 -1       419 1.50000E+02 2.00000E+01 3.00000E+01
 -1       420 1.71429E+02 1.00000E+01 2.50000E+01
 -1       421 1.71429E+02 1.00000E+01 3.00000E+01
 -1       422 1.50000E+02 0.00000E+00 2.50000E+01
 -1       423 1.71429E+02 0.00000E+00 2.75000E+01
 -1       424 1.50000E+02 0.00000E+00 3.00000E+01
 -1       425 2.14286E+02 2.00000E+01 2.50000E+01
 -1       426 2.14286E+02 2.00000E+01 3.00000E+01
 -1       427 2.14286E+02 0.00000E+00 2.50000E+01
 -1       428 2.14286E+02 0.00000E+00 3.00000E+01
 -1       429 1.92857E+02 2.00000E+01 2.50000E+01
 -1       430 2.14286E+02 2.00000E+01 2.75000E+01
 -1       431 1.92857E+02 2.00000E+01 3.00000E+01
 -1       432 2.14286E+02 1.00000E+01 2.50000E+01
 -1       433 2.14286E+02 1.00000E+01 3.00000E+01
 -1       434 1.92857E+02 0.00000E+00 2.50000E+01
 -1       435 2.14286E+02 0.00000E+00 2.75000E+01
 -1       436 1.92857E+02 0.00000E+00 3.00000E+01
 -1       437 2.57143E+02 2.00000E+01 2.50000E+01
 -1       438 2.57143E+02 2.00000E+01 3.00000E+01
 -1       439 2.57143E+02 0.00000E+00 2.50000E+01
 -1       440 2.57143E+02 0.00000E+00 3.00000E+01
 -1       441 2.35714E+02 2.00000E+01 2.50000E+01
 -1       442 2.57143E+02 2.00000E+01 2.75000E+01
 -1       443 2.35714E+02 2.00000E+01 3.00000E+01
 -1       444 2.57143E+02 1.00000E+01 2.50000E+01
 -1       445 2.57143E+02 1.00000E+01 3.00000E+01
 -1       446 2.35714E+02 0.00000E+00 2.50000E+01
 -1       447 2.57143E+02 0.00000E+00 2.75000E+01
 -1       448 2.35714E+02 0.00000E+00 3.00000E+01
 -1       449 3.00000E+02 2.00000E+01 2.50000E+01
 -1       450 3.00000E+02 2.00000E+01 3.00000E+01
 -1       451 3.00000E+02 0.00000E+00 2.50000E+01
 -1       452 3.00000E+02 0.00000E+00 3.00000E+01
 -1       453 2.78571E+02 2.00000E+01 2.50000E+01
 -1       454 3.00000E+02 2.00000E+01 2.75000E+01
 -1       455 2.78571E+02 2.00000E+01 3.00000E+01
 -1       456 3.00000E+02 1.00000E+01 2.50000E+01
 -1       457 3.00000E+02 1.00000E+01 3.00000E+01
 -1       458 2.78571E+02 0.00000E+00 2.50000E+01
 -1       459 3.00000E+02 0.00000E+00 2.75000E+01
 -1       460 2.78571E+02 0.00000E+00 3.00000E+01
 -3
    3C                            26                                     1
 -1         1    4    0    2
 -2         1         2         3         4         5         6         7         8         9        10
 -2        11        12        13        14        15        16        17        18        19        20
 -1         2    4    0    2
 -2        41        42        43        44        45        46        47        48        49        50
 -2        51        52        53        54        55        56        57        58        59        60
 -1         3    4    0    2
 -2        44        43        61        62        48        47        63        64        51        65
 -2        66        67        56        55        68        69        59        70        71        72
 -1         4    4    0    2
 -2        62        61        73        74        64        63        75        76        66        77
 -2        78        79        69        68        80        81        71        82        83        84
 -1         5    4    0    2
 -2       105       106       107       108       109       110       111       112       113       114
 -2       115       116       117       118       119       120       121       122       123       124
 -1         6    4    0    2
 -2       108       107       125       126       112       111       127       128       115       129
 -2       130       131       120       119       132       133       123       134       135       136
 -1         7    4    0    2
 -2       126       125       137       138       128       127       139       140       130       141
 -2       142       143       133       132       144       145       135       146       147       148
 -1         8    4    0    2
 -2       138       137       149       150       140       139       151       152       142       153
 -2       154       155       145       144       156       157       147       158       159       160
 -1         9    4    0    2
 -2       181       182       183       184       185       186       187       188       189       190
 -2       191       192       193       194       195       196       197       198       199       200
 -1        10    4    0    2
 -2       184       183       201       202       188       187       203       204       191       205
 -2       206       207       196       195       208       209       199       210       211       212
 -1        11    4    0    2
 -2       202       201       213       214       204       203       215       216       206       217
 -2       218       219       209       208       220       221       211       222       223       224
 -1        12    4    0    2
 -2       214       213       225       226       216       215       227       228       218       229
 -2       230       231       221       220       232       233       223       234       235       236
 -1        13    4    0    2
 -2       226       225       237       238       228       227       239       240       230       241
 -2       242       243       233       232       244       245       235       246       247       248
 -1        14    4    0    2
 -2       269       270       271       272       273       274       275       276       277       278
 -2       279       280       281       282       283       284       285       286       287       288
 -1        15    4    0    2
 -2       272       271       289       290       276       275       291       292       279       293
 -2       294       295       284       283       296       297       287       298       299       300
 -1        16    4    0    2
 -2       290       289       301       302       292       291       303       304       294       305
 -2       306       307       297       296       308       309       299       310       311       312
 -1        17    4    0    2
 -2       302       301       313       314       304       303       315       316       306       317
 -2       318       319       309       308       320       321       311       322       323       324
 -1        18    4    0    2
 -2       314       313       325       326       316       315       327       328       318       329
 -2       330       331       321       320       332       333       323       334       335       336
 -1        19    4    0    2
 -2       326       325       337       338       328       327       339       340       330       341
 -2       342       343       333       332       344       345       335       346       347       348
 -1        20    4    0    2
 -2       369       370       371       372       373       374       375       376       377       378
 -2       379       380       381       382       383       384       385       386       387       388
 -1        21    4    0    2
 -2       372       371       389       390       376       375       391       392       379       393
 -2       394       395       384       383       396       397       387       398       399       400
 -1        22    4    0    2
 -2       390       389       401       402       392       391       403       404       394       405
 -2       406       407       397       396       408       409       399       410       411       412
 -1        23    4    0    2
 -2       402       401       413       414       404       403       415       416       406       417
 -2       418       419       409       408       420       421       411       422       423       424
 -1        24    4    0    2
 -2       414       413       425       426       416       415       427       428       418       429
 -2       430       431       421       420       432       433       423       434       435       436
 -1        25    4    0    2
 -2       426       425       437       438       428       427       439       440       430       441
 -2       442       443       433       432       444       445       435       446       447       448
 -1        26    4    0    2
 -2       438       437       449       450       440       439       451       452       442       453
 -2       454       455       445       444       456       457       447       458       459       460
 -3
    1PSTEP                         1          50           1          
  100CL  101 2.90379E-02         360                     0    1           1
 -4  DISP        4    1
 -5  D1          1    2    1    0
 -5  D2          1    2    2    0
 -5  D3          1    2    3    0
 -5  ALL         1    2    0    0    1ALL
 -1         1 0.00000E+00-1.35782E-05 2.90379E-01
 -1         2 0.00000E+00 1.36656E-05 2.90379E-01
 -1         3-7.30489E-04 9.00701E-05 2.82952E-01
 -1         4 7.28497E-04-8.74679E-05 2.82951E-01
 -1         5 0.00000E+00 0.00000E+00 2.90379E-01
 -1         6 0.00000E+00 0.00000E+00 2.90379E-01
 -1         7-7.37615E-04 0.00000E+00 2.82580E-01
 -1         8 7.37543E-04 0.00000E+00 2.82577E-01
 -1         9 0.00000E+00 2.03731E-08 2.90379E-01
 -1        10-3.75615E-04 5.43178E-05 2.88515E-01
 -1        11-1.00988E-06 1.23469E-06 2.82960E-01
 -1        12 3.74685E-04-5.45727E-05 2.88515E-01
 -1        13 0.00000E+00-7.23219E-07 2.90379E-01
 -1        14 0.00000E+00 5.67384E-07 2.90379E-01
 -1        15-7.38142E-04 4.73232E-05 2.82670E-01
 -1        16 7.37212E-04-4.57870E-05 2.82670E-01
 -1        17 0.00000E+00 0.00000E+00 2.90379E-01
 -1        18-3.94451E-04 0.00000E+00 2.88311E-01
 -1        19-9.26469E-08 0.00000E+00 2.82587E-01
 -1        20 3.93861E-04 0.00000E+00 2.88311E-01
 -1        41 0.00000E+00-1.26121E-05 2.90379E-01
 -1        42 0.00000E+00 1.27592E-05 2.90379E-01
 -1        43-4.90807E-04 9.00396E-05 2.87369E-01
 -1        44 4.90796E-04-8.99733E-05 2.87368E-01
 -1        45 0.00000E+00 0.00000E+00 2.90379E-01
 -1        46 0.00000E+00 0.00000E+00 2.90379E-01
 -1        47-5.02474E-04 0.00000E+00 2.87028E-01
 -1        48 5.02069E-04 0.00000E+00 2.87028E-01
 -1        49 0.00000E+00 4.80042E-08 2.90379E-01
 -1        50-2.26689E-04 5.13529E-05 2.89704E-01
 -1        51-1.57449E-09-1.06325E-08 2.87378E-01
 -1        52 2.26793E-04-5.10264E-05 2.89703E-01
 -1        53 0.00000E+00-1.35648E-06 2.90379E-01
 -1        54 0.00000E+00 1.20090E-06 2.90379E-01
 -1        55-4.99598E-04 4.20868E-05 2.87102E-01
 -1        56 4.99481E-04-4.20023E-05 2.87102E-01
 -1        57 0.00000E+00 0.00000E+00 2.90379E-01
 -1        58-2.52134E-04 0.00000E+00 2.89528E-01
 -1        59-2.23500E-07 0.00000E+00 2.87038E-01
 -1        60 2.52289E-04 0.00000E+00 2.89528E-01
 -1        61-1.16196E-03 8.85622E-05 2.76293E-01
 -1        62 1.15911E-03-8.83515E-05 2.76292E-01
 -1        63-1.15359E-03 0.00000E+00 2.75948E-01
 -1        64 1.15064E-03 0.00000E+00 2.75947E-01
 -1        65-8.31579E-04 9.73716E-05 2.82951E-01
 -1        66-1.41928E-06 7.08919E-08 2.76298E-01
 -1        67 8.30812E-04-9.66373E-05 2.82950E-01
 -1        68-1.15665E-03 4.29032E-05 2.76030E-01
 -1        69 1.15340E-03-4.28125E-05 2.76029E-01
 -1        70-8.31812E-04 0.00000E+00 2.82577E-01
 -1        71-1.43117E-06 0.00000E+00 2.75953E-01
 -1        72 8.30733E-04 0.00000E+00 2.82576E-01
 -1        73-1.44576E-03 6.83568E-05 2.58766E-01
 -1        74 1.43238E-03-6.58681E-05 2.58766E-01
 -1        75-1.45109E-03 0.00000E+00 2.58463E-01
 -1        76 1.44020E-03 0.00000E+00 2.58460E-01
 -1        77-1.32089E-03 7.10340E-05 2.67991E-01
 -1        78-6.70518E-06 1.31269E-06 2.58767E-01
 -1        79 1.31318E-03-7.13081E-05 2.67990E-01
 -1        80-1.44651E-03 3.87801E-05 2.58555E-01
 -1        81 1.43487E-03-3.73129E-05 2.58553E-01
 -1        82-1.31768E-03 0.00000E+00 2.67697E-01
 -1        83-5.57663E-06 0.00000E+00 2.58462E-01
 -1        84 1.31019E-03 0.00000E+00 2.67697E-01
 -1       105 0.00000E+00-1.21590E-05 2.90379E-01
 -1       106 0.00000E+00 1.22459E-05 2.90379E-01
 -1       107-5.43275E-04 8.92798E-05 2.86538E-01
 -1       108 5.43495E-04-8.90274E-05 2.86537E-01
 -1       109 0.00000E+00 0.00000E+00 2.90379E-01
 -1       110 0.00000E+00 0.00000E+00 2.90379E-01
 -1       111-5.52148E-04 0.00000E+00 2.86190E-01
 -1       112 5.51792E-04 0.00000E+00 2.86189E-01
 -1       113 0.00000E+00 1.99021E-08 2.90379E-01
 -1       114-2.56892E-04 5.34561E-05 2.89503E-01
 -1       115 1.20187E-07 6.56881E-08 2.86546E-01
 -1       116 2.57020E-04-5.30353E-05 2.89502E-01
 -1       117 0.00000E+00-1.54123E-06 2.90379E-01
 -1       118 0.00000E+00 1.37849E-06 2.90379E-01
 -1       119-5.51011E-04 4.36462E-05 2.86270E-01
 -1       120 5.50856E-04-4.36546E-05 2.86270E-01
 -1       121 0.00000E+00 0.00000E+00 2.90379E-01
 -1       122-2.80396E-04 0.00000E+00 2.89308E-01
 -1       123-1.75997E-07 0.00000E+00 2.86198E-01
 -1       124 2.80536E-04 0.00000E+00 2.89308E-01
 -1       125-1.21670E-03 1.07353E-04 2.73403E-01
 -1       126 1.21187E-03-1.07511E-04 2.73403E-01
 -1       127-1.21575E-03 0.00000E+00 2.72980E-01
 -1       128 1.21057E-03 0.00000E+00 2.72979E-01
 -1       129-8.76089E-04 1.01937E-04 2.81223E-01
 -1       130-2.41384E-06-5.49756E-08 2.73410E-01
 -1       131 8.74667E-04-1.02002E-04 2.81223E-01
 -1       132-1.21527E-03 5.28461E-05 2.73081E-01
 -1       133 1.21016E-03-5.28335E-05 2.73081E-01
 -1       134-8.80840E-04 0.00000E+00 2.80819E-01
 -1       135-2.60353E-06 0.00000E+00 2.72987E-01
 -1       136 8.79144E-04 0.00000E+00 2.80819E-01
 -1       137-1.94243E-03 8.18282E-05 2.49738E-01
 -1       138 1.92309E-03-8.15196E-05 2.49736E-01
 -1       139-1.93333E-03 0.00000E+00 2.49417E-01
 -1       140 1.91376E-03 0.00000E+00 2.49415E-01
 -1       141-1.58269E-03 9.90518E-05 2.62925E-01
 -1       142-9.65860E-06 1.52998E-07 2.49743E-01
 -1       143 1.57227E-03-9.86785E-05 2.62924E-01
 -1       144-1.93726E-03 3.97867E-05 2.49496E-01
 -1       145 1.91760E-03-3.96187E-05 2.49495E-01
 -1       146-1.57676E-03 0.00000E+00 2.62537E-01
 -1       147-9.74816E-06 0.00000E+00 2.49422E-01
 -1       148 1.56578E-03 0.00000E+00 2.62536E-01
 -1       149-2.27892E-03 6.75715E-05 2.18126E-01
 -1       150 2.23204E-03-6.53196E-05 2.18124E-01
 -1       151-2.28549E-03 0.00000E+00 2.17830E-01
 -1       152 2.24053E-03 0.00000E+00 2.17827E-01
 -1       153-2.12628E-03 6.63345E-05 2.34534E-01
 -1       154-2.34435E-05 1.16708E-06 2.18126E-01
 -1       155 2.09423E-03-6.66113E-05 2.34532E-01
 -1       156-2.28086E-03 3.74755E-05 2.17919E-01
 -1       157 2.23527E-03-3.61544E-05 2.17916E-01
 -1       158-2.12468E-03 0.00000E+00 2.34262E-01
 -1       159-2.25735E-05 0.00000E+00 2.17829E-01
 -1       160 2.09255E-03 0.00000E+00 2.34260E-01
 -1       181 0.00000E+00-1.19809E-05 2.90379E-01
 -1       182 0.00000E+00 1.19235E-05 2.90379E-01
 -1       183-5.82698E-04 9.35354E-05 2.85985E-01
 -1       184 5.82491E-04-9.30455E-05 2.85984E-01
 -1       185 0.00000E+00 0.00000E+00 2.90379E-01
 -1       186 0.00000E+00 0.00000E+00 2.90379E-01
 -1       187-5.89812E-04 0.00000E+00 2.85619E-01
 -1       188 5.89197E-04 0.00000E+00 2.85618E-01
 -1       189 0.00000E+00-3.78855E-08 2.90379E-01
 -1       190-2.75529E-04 5.56373E-05 2.89369E-01
 -1       191-9.77677E-08 1.83699E-07 2.85992E-01
 -1       192 2.75393E-04-5.54386E-05 2.89369E-01
 -1       193 0.00000E+00-1.51892E-06 2.90379E-01
 -1       194 0.00000E+00 1.39530E-06 2.90379E-01
 -1       195-5.88978E-04 4.57569E-05 2.85703E-01
 -1       196 5.88514E-04-4.56315E-05 2.85703E-01
 -1       197 0.00000E+00 0.00000E+00 2.90379E-01
 -1       198-2.98885E-04 0.00000E+00 2.89165E-01
 -1       199-3.09539E-07 0.00000E+00 2.85627E-01
 -1       200 2.98877E-04 0.00000E+00 2.89164E-01
 -1       201-1.27021E-03 1.02150E-04 2.71167E-01
 -1       202 1.26424E-03-1.02263E-04 2.71166E-01
 -1       203-1.27082E-03 0.00000E+00 2.70757E-01
 -1       204 1.26461E-03 0.00000E+00 2.70756E-01
 -1       205-9.26945E-04 1.00176E-04 2.79940E-01
 -1       206-2.98087E-06-4.37182E-08 2.71172E-01
 -1       207 9.25072E-04-1.00223E-04 2.79940E-01
 -1       208-1.27024E-03 5.13242E-05 2.70860E-01
 -1       209 1.26399E-03-5.13668E-05 2.70859E-01
 -1       210-9.29362E-04 0.00000E+00 2.79541E-01
 -1       211-3.09665E-06 0.00000E+00 2.70762E-01
 -1       212 9.27022E-04 0.00000E+00 2.79540E-01
 -1       213-1.98307E-03 1.06073E-04 2.45297E-01
 -1       214 1.96022E-03-1.06212E-04 2.45295E-01
 -1       215-1.98226E-03 0.00000E+00 2.44877E-01
 -1       216 1.95869E-03 0.00000E+00 2.44876E-01
 -1       217-1.62299E-03 1.04672E-04 2.59639E-01
 -1       218-1.14155E-05-7.39966E-08 2.45304E-01
 -1       219 1.61048E-03-1.04662E-04 2.59638E-01
 -1       220-1.98244E-03 5.22129E-05 2.44979E-01
 -1       221 1.95914E-03-5.22667E-05 2.44977E-01
 -1       222-1.62400E-03 0.00000E+00 2.59222E-01
 -1       223-1.17881E-05 0.00000E+00 2.44884E-01
 -1       224 1.61099E-03 0.00000E+00 2.59221E-01
 -1       225-2.75905E-03 8.16602E-05 2.07628E-01
 -1       226 2.70103E-03-8.12716E-05 2.07625E-01
 -1       227-2.75090E-03 0.00000E+00 2.07309E-01
 -1       228 2.69240E-03 0.00000E+00 2.07305E-01
 -1       229-2.37291E-03 9.80374E-05 2.27984E-01
 -1       230-2.89989E-05 2.00580E-07 2.07632E-01
 -1       231 2.33520E-03-9.77517E-05 2.27982E-01
 -1       232-2.75431E-03 3.97094E-05 2.07387E-01
 -1       233 2.69575E-03-3.94697E-05 2.07384E-01
 -1       234-2.36759E-03 0.00000E+00 2.27600E-01
 -1       235-2.92215E-05 0.00000E+00 2.07313E-01
 -1       236 2.32912E-03 0.00000E+00 2.27598E-01
 -1       237-3.14151E-03 6.68377E-05 1.60901E-01
 -1       238 3.02810E-03-6.46808E-05 1.60897E-01
 -1       239-3.14683E-03 0.00000E+00 1.60612E-01
 -1       240 3.03492E-03 0.00000E+00 1.60606E-01
 -1       241-2.96519E-03 6.63647E-05 1.84972E-01
 -1       242-5.67139E-05 1.11389E-06 1.60900E-01
 -1       243 2.88117E-03-6.66660E-05 1.84968E-01
 -1       244-3.14300E-03 3.66746E-05 1.60697E-01
 -1       245 3.03061E-03-3.54427E-05 1.60692E-01
 -1       246-2.96357E-03 0.00000E+00 1.84700E-01
 -1       247-5.60326E-05 0.00000E+00 1.60610E-01
 -1       248 2.87924E-03 0.00000E+00 1.84697E-01
 -1       269 0.00000E+00-1.19034E-05 2.90379E-01
 -1       270 0.00000E+00 1.18189E-05 2.90379E-01
 -1       271-6.07710E-04 9.59185E-05 2.85594E-01
 -1       272 6.07207E-04-9.55095E-05 2.85594E-01
 -1       273 0.00000E+00 0.00000E+00 2.90379E-01
 -1       274 0.00000E+00 0.00000E+00 2.90379E-01
 -1       275-6.14450E-04 0.00000E+00 2.85218E-01
 -1       276 6.13644E-04 0.00000E+00 2.85217E-01
 -1       277 0.00000E+00-4.44119E-08 2.90379E-01
 -1       278-2.87854E-04 5.69407E-05 2.89275E-01
 -1       279-2.48254E-07 1.60577E-07 2.85602E-01
 -1       280 2.87658E-04-5.68637E-05 2.89275E-01
 -1       281 0.00000E+00-1.49543E-06 2.90379E-01
 -1       282 0.00000E+00 1.42545E-06 2.90379E-01
 -1       283-6.13862E-04 4.71842E-05 2.85305E-01
 -1       284 6.13158E-04-4.70517E-05 2.85305E-01
 -1       285 0.00000E+00 0.00000E+00 2.90379E-01
 -1       286-3.11069E-04 0.00000E+00 2.89064E-01
 -1       287-4.02994E-07 0.00000E+00 2.85225E-01
 -1       288 3.10963E-04 0.00000E+00 2.89064E-01
 -1       289-1.33255E-03 1.03306E-04 2.69438E-01
 -1       290 1.32552E-03-1.03382E-04 2.69438E-01
 -1       291-1.33271E-03 0.00000E+00 2.69025E-01
 -1       292 1.32543E-03 0.00000E+00 2.69024E-01
 -1       293-9.70492E-04 1.02273E-04 2.79014E-01
 -1       294-3.51419E-06-3.18737E-08 2.69444E-01
 -1       295 9.68095E-04-1.02317E-04 2.79014E-01
 -1       296-1.33190E-03 5.17542E-05 2.69128E-01
 -1       297 1.32460E-03-5.17874E-05 2.69127E-01
 -1       298-9.72380E-04 0.00000E+00 2.78606E-01
 -1       299-3.63540E-06 0.00000E+00 2.69031E-01
 -1       300 9.69533E-04 0.00000E+00 2.78606E-01
 -1       301-2.04510E-03 1.01037E-04 2.41420E-01
 -1       302 2.01920E-03-1.01120E-04 2.41419E-01
 -1       303-2.04488E-03 0.00000E+00 2.41015E-01
 -1       304 2.01828E-03 0.00000E+00 2.41013E-01
 -1       305-1.68839E-03 1.02709E-04 2.56897E-01
 -1       306-1.29446E-05-5.15385E-08 2.41426E-01
 -1       307 1.67398E-03-1.02662E-04 2.56896E-01
 -1       308-2.04545E-03 5.07480E-05 2.41117E-01
 -1       309 2.01903E-03-5.08203E-05 2.41115E-01
 -1       310-1.68826E-03 0.00000E+00 2.56485E-01
 -1       311-1.32947E-05 0.00000E+00 2.41020E-01
 -1       312 1.67325E-03 0.00000E+00 2.56484E-01
 -1       313-2.77476E-03 1.04005E-04 2.01664E-01
 -1       314 2.71071E-03-1.04143E-04 2.01661E-01
 -1       315-2.77445E-03 0.00000E+00 2.01251E-01
 -1       316 2.70946E-03 0.00000E+00 2.01248E-01
 -1       317-2.40628E-03 1.02467E-04 2.23019E-01
 -1       318-3.20174E-05-6.74706E-08 2.01669E-01
 -1       319 2.36412E-03-1.02446E-04 2.23017E-01
 -1       320-2.77424E-03 5.13488E-05 2.01352E-01
 -1       321 2.70954E-03-5.13985E-05 2.01349E-01
 -1       322-2.40723E-03 0.00000E+00 2.22611E-01
 -1       323-3.24926E-05 0.00000E+00 2.01257E-01
 -1       324 2.36434E-03 0.00000E+00 2.22609E-01
 -1       325-3.57671E-03 8.01223E-05 1.49495E-01
 -1       326 3.44762E-03-7.96964E-05 1.49490E-01
 -1       327-3.56924E-03 0.00000E+00 1.49182E-01
 -1       328 3.43935E-03 0.00000E+00 1.49176E-01
 -1       329-3.17619E-03 9.63169E-05 1.77187E-01
 -1       330-6.45283E-05 2.16364E-07 1.49498E-01
 -1       331 3.08344E-03-9.60862E-05 1.77183E-01
 -1       332-3.57243E-03 3.91312E-05 1.49259E-01
 -1       333 3.44259E-03-3.88565E-05 1.49253E-01
 -1       334-3.17124E-03 0.00000E+00 1.76809E-01
 -1       335-6.49206E-05 0.00000E+00 1.49185E-01
 -1       336 3.07752E-03 0.00000E+00 1.76804E-01
 -1       337-3.99763E-03 6.31233E-05 8.76251E-02
 -1       338 3.77598E-03-6.10571E-05 8.76190E-02
 -1       339-4.00011E-03 0.00000E+00 8.73600E-02
 -1       340 3.77944E-03 0.00000E+00 8.73529E-02
 -1       341-3.80133E-03 6.50462E-05 1.19339E-01
 -1       342-1.10841E-04 1.07627E-06 8.76236E-02
 -1       343 3.62821E-03-6.53546E-05 1.19334E-01
 -1       344-3.99776E-03 3.37624E-05 8.74356E-02
 -1       345 3.77686E-03-3.26675E-05 8.74285E-02
 -1       346-3.79896E-03 0.00000E+00 1.19075E-01
 -1       347-1.10392E-04 0.00000E+00 8.73579E-02
 -1       348 3.62540E-03 0.00000E+00 1.19070E-01
 -1       369 0.00000E+00-1.19168E-05 2.90379E-01
 -1       370 0.00000E+00 1.18438E-05 2.90379E-01
 -1       371-6.26655E-04 9.78813E-05 2.85306E-01
 -1       372 6.25979E-04-9.77305E-05 2.85305E-01
 -1       373 0.00000E+00 0.00000E+00 2.90379E-01
 -1       374 0.00000E+00 0.00000E+00 2.90379E-01
 -1       375-6.33228E-04 0.00000E+00 2.84921E-01
 -1       376 6.32327E-04 0.00000E+00 2.84920E-01
 -1       377 0.00000E+00-3.57453E-08 2.90379E-01
 -1       378-2.96580E-04 5.77803E-05 2.89206E-01
 -1       379-3.36240E-07 5.72896E-08 2.85313E-01
 -1       380 2.96454E-04-5.77693E-05 2.89205E-01
 -1       381 0.00000E+00-1.40541E-06 2.90379E-01
 -1       382 0.00000E+00 1.37312E-06 2.90379E-01
 -1       383-6.32596E-04 4.81411E-05 2.85010E-01
 -1       384 6.31760E-04-4.80856E-05 2.85009E-01
 -1       385 0.00000E+00 0.00000E+00 2.90379E-01
 -1       386-3.19730E-04 0.00000E+00 2.88992E-01
 -1       387-4.49678E-07 0.00000E+00 2.84929E-01
 -1       388 3.19603E-04 0.00000E+00 2.88992E-01
 -1       389-1.37392E-03 1.02652E-04 2.68153E-01
 -1       390 1.36623E-03-1.02723E-04 2.68152E-01
 -1       391-1.37395E-03 0.00000E+00 2.67741E-01
 -1       392 1.36586E-03 0.00000E+00 2.67740E-01
 -1       393-1.00200E-03 1.03016E-04 2.78317E-01
 -1       394-3.84292E-06-3.15254E-08 2.68159E-01
 -1       395 9.99178E-04-1.03039E-04 2.78317E-01
 -1       396-1.37330E-03 5.15623E-05 2.67844E-01
 -1       397 1.36528E-03-5.15891E-05 2.67843E-01
 -1       398-1.00322E-03 0.00000E+00 2.77906E-01
 -1       399-4.04052E-06 0.00000E+00 2.67747E-01
 -1       400 1.00002E-03 0.00000E+00 2.77905E-01
 -1       401-2.10714E-03 1.02403E-04 2.38480E-01
 -1       402 2.07878E-03-1.02435E-04 2.38478E-01
 -1       403-2.10728E-03 0.00000E+00 2.38070E-01
 -1       404 2.07827E-03 0.00000E+00 2.38068E-01
 -1       405-1.73894E-03 1.02787E-04 2.54867E-01
 -1       406-1.41765E-05-2.19513E-08 2.38486E-01
 -1       407 1.72308E-03-1.02787E-04 2.54866E-01
 -1       408-2.10738E-03 5.12318E-05 2.38172E-01
 -1       409 2.07855E-03-5.12552E-05 2.38170E-01
 -1       410-1.73915E-03 0.00000E+00 2.54455E-01
 -1       411-1.44972E-05 0.00000E+00 2.38076E-01
 -1       412 1.72272E-03 0.00000E+00 2.54454E-01
 -1       413-2.84857E-03 9.98287E-05 1.96409E-01
 -1       414 2.77892E-03-9.99176E-05 1.96405E-01
 -1       415-2.84843E-03 0.00000E+00 1.96008E-01
 -1       416 2.77782E-03 0.00000E+00 1.96005E-01
 -1       417-2.47721E-03 1.01620E-04 2.18990E-01
 -1       418-3.48182E-05-4.93773E-08 1.96413E-01
 -1       419 2.43126E-03-1.01565E-04 2.18987E-01
 -1       420-2.84862E-03 5.00975E-05 1.96108E-01
 -1       421 2.77822E-03-5.01491E-05 1.96105E-01
 -1       422-2.47711E-03 0.00000E+00 2.18582E-01
 -1       423-3.52976E-05 0.00000E+00 1.96012E-01
 -1       424 2.43035E-03 0.00000E+00 2.18580E-01
 -1       425-3.58314E-03 9.80333E-05 1.42181E-01
 -1       426 3.44452E-03-9.81530E-05 1.42176E-01
 -1       427-3.58250E-03 0.00000E+00 1.41791E-01
 -1       428 3.44287E-03 0.00000E+00 1.41786E-01
 -1       429-3.21338E-03 9.92722E-05 1.70794E-01
 -1       430-6.92976E-05-4.79835E-08 1.42185E-01
 -1       431 3.11306E-03-9.93264E-05 1.70790E-01
 -1       432-3.58268E-03 4.87102E-05 1.41886E-01
 -1       433 3.44336E-03-4.87400E-05 1.41881E-01
 -1       434-3.21341E-03 0.00000E+00 1.70397E-01
 -1       435-6.98090E-05 0.00000E+00 1.41795E-01
 -1       436 3.11212E-03 0.00000E+00 1.70393E-01
 -1       437-4.35419E-03 7.20768E-05 7.57443E-02
 -1       438 4.11277E-03-7.17207E-05 7.57370E-02
 -1       439-4.34337E-03 0.00000E+00 7.54664E-02
 -1       440 4.10145E-03 0.00000E+00 7.54587E-02
 -1       441-3.96787E-03 9.03140E-05 1.10508E-01
 -1       442-1.20716E-04 1.51676E-07 7.57456E-02
 -1       443 3.78270E-03-9.01075E-05 1.10501E-01
 -1       444-4.34748E-03 3.52028E-05 7.55306E-02
 -1       445 4.10538E-03-3.50449E-05 7.55234E-02
 -1       446-3.96274E-03 0.00000E+00 1.10150E-01
 -1       447-1.20946E-04 0.00000E+00 7.54676E-02
 -1       448 3.77641E-03 0.00000E+00 1.10144E-01
 -1       449-4.76316E-03 4.32742E-06 0.00000E+00
 -1       450 4.38740E-03-5.82351E-06-5.41703E-06
 -1       451-4.74613E-03 0.00000E+00 0.00000E+00
 -1       452 4.37086E-03 0.00000E+00-7.62148E-06
 -1       453-4.57142E-03 3.84151E-05 3.86032E-02
 -1       454-1.87802E-04-5.92701E-07-2.92018E-07
 -1       455 4.26643E-03-3.84908E-05 3.85957E-02
 -1       456-4.75186E-03 1.37290E-06 0.00000E+00
 -1       457 4.37641E-03-1.77293E-06-8.30259E-06
 -1       458-4.55762E-03 0.00000E+00 3.84516E-02
 -1       459-1.87652E-04 0.00000E+00-1.39941E-06
 -1       460 4.25153E-03 0.00000E+00 3.84444E-02
 -3
    1PSTEP                         2          50           1          
  100CL  101 2.90379E-02         360                     0    1           1
 -4  STRESS      6    1
 -5  SXX         1    4    1    1
 -5  SYY         1    4    2    2
 -5  SZZ         1    4    3    3
 -5  SXY         1    4    1    2
 -5  SYZ         1    4    2    3
 -5  SZX         1    4    3    1
 -1         1 4.12568E+00 1.33146E+00 1.63710E+00-1.45535E-01-4.38586E-01-4.37774E-02
 -1         2-4.12998E+00-1.32319E+00-1.63600E+00 1.39248E-01-4.41599E-01-4.31251E-02
 -1         3-2.57477E+00 2.97939E-01 7.35368E-01 2.01592E-01 1.81455E-01-3.81120E-01
 -1         4 2.52299E+00-3.42794E-01-8.92053E-01-1.98301E-01 1.68560E-01-3.85300E-01
 -1         5 4.80209E+00 2.18126E+00 2.09497E+00-8.29794E-06 4.11654E-06-7.57984E-01
 -1         6-4.81939E+00-2.19702E+00-2.10496E+00-8.69862E-06 9.12415E-07-7.60029E-01
 -1         7-2.17909E+00 6.66820E-01 9.29058E-01-3.73037E-02-4.47344E-02-6.09286E-01
 -1         8 2.10231E+00-7.36292E-01-1.20775E+00 3.11798E-02-1.28406E-02-6.14859E-01
 -1         9-2.48028E-03 3.77659E-03 3.85010E-04-3.20393E-03-4.40094E-01-2.92118E-02
 -1        10-3.33364E+00-4.72483E-01-4.20932E-01 2.32263E-01-1.63102E-01 1.23951E-01
 -1        11-2.64760E-02-2.34291E-02-7.88257E-02 1.75376E-03 1.74575E-01-3.68970E-01
 -1        12 3.30370E+00 4.42608E-01 3.62532E-01-2.30929E-01-1.71067E-01 1.21609E-01
 -1        13 4.48757E+00 1.76651E+00 1.87619E+00-8.58747E-02-2.00943E-02-5.53153E-01
 -1        14-4.49783E+00-1.77002E+00-1.88039E+00 8.34491E-02-2.16035E-02-5.56506E-01
 -1        15-2.35983E+00 5.12608E-01 9.15971E-01 9.59459E-02-1.77370E-03-5.16333E-01
 -1        16 2.37658E+00-4.89247E-01-9.46078E-01-9.66910E-02 7.73560E-03-5.18545E-01
 -1        17-9.23079E-03-8.32530E-03-5.25783E-03-6.51580E-06 2.65431E-07-7.44595E-01
 -1        18-3.46207E+00-7.06619E-01-5.15958E-01 4.30329E-02 4.96008E-02 1.34836E-01
 -1        19-3.92037E-02-3.58438E-02-1.39933E-01-2.89010E-03-2.92193E-02-5.97661E-01
 -1        20 3.44999E+00 6.89093E-01 4.76227E-01-4.35795E-02 6.25153E-02 1.33150E-01
 -1        41 3.33503E+00 1.05530E+00 1.31708E+00-1.84887E-01-4.08196E-01 7.46724E-01
 -1        42-3.32466E+00-1.03865E+00-1.30902E+00 1.86793E-01-4.11489E-01 7.52000E-01
 -1        43-3.81354E+00 5.26084E-02 4.26546E-01 2.25485E-01 2.38585E-02 1.96909E-01
 -1        44 3.80252E+00-6.94845E-02-4.67578E-01-2.24621E-01 1.71218E-02 1.95524E-01
 -1        45 4.34412E+00 1.94463E+00 1.88658E+00-1.49780E-06 3.70806E-06-1.27937E-01
 -1        46-4.33989E+00-1.95181E+00-1.88756E+00-2.18550E-06 2.88779E-06-1.27492E-01
 -1        47-3.52167E+00-6.93686E-02 5.49762E-01-6.50286E-04-1.84272E-01 2.32267E-02
 -1        48 3.50576E+00 5.37108E-02-5.95342E-01 3.71540E-03-1.71447E-01 2.11713E-02
 -1        49 4.99622E-03 7.98489E-03 3.90248E-03 9.17838E-04-4.09847E-01 7.72027E-01
 -1        50-3.31436E+00-3.90732E-01-3.53329E-01 3.13735E-01-1.66097E-01 3.27085E-02
 -1        51-5.91778E-03-9.07438E-03-2.08098E-02 5.32580E-04 1.87089E-02 2.02791E-01
 -1        52 3.28941E+00 3.69903E-01 2.84838E-01-3.15200E-01-1.69897E-01 3.09935E-02
 -1        53 3.86542E+00 1.51104E+00 1.61291E+00-9.72046E-02-4.04882E-02 7.73646E-02
 -1        54-3.85736E+00-1.50598E+00-1.60904E+00 9.88389E-02-4.21380E-02 7.83500E-02
 -1        55-3.64381E+00 1.26141E-02 5.34467E-01 1.17037E-01 1.53772E-02 9.68548E-02
 -1        56 3.66690E+00 8.37533E-03-4.89881E-01-1.14783E-01 1.84214E-02 9.57481E-02
 -1        57 1.67851E-03-4.01653E-03-7.02492E-04 5.36121E-07-1.23864E-06-1.03983E-01
 -1        58-3.57616E+00-8.58262E-01-5.14162E-01 7.88706E-02-6.94598E-02 2.96804E-02
 -1        59-8.18937E-03-8.39471E-03-2.30202E-02 1.63525E-03-1.79641E-01 2.88385E-02
 -1        60 3.56828E+00 8.50269E-01 4.96602E-01-7.83431E-02-6.51417E-02 2.94567E-02
 -1        61-3.13084E+00 4.02088E-02-2.80881E-02-1.54716E-01 2.71588E-03-3.51174E-01
 -1        62 3.11853E+00-5.03019E-02-3.39245E-03 1.50233E-01-5.30969E-04-3.52384E-01
 -1        63-3.16542E+00-1.01214E-01-7.86704E-02-1.55866E-02-7.66527E-02-2.75175E-01
 -1        64 3.14001E+00 7.93394E-02 2.59984E-02 1.03350E-02-6.78335E-02-2.76025E-01
 -1        65-4.33255E+00-2.32897E-01-1.53937E-01 1.10968E-02-1.11248E-01 1.84004E-02
 -1        66-6.53522E-03-5.57188E-03-1.59767E-02-2.25093E-03 8.74083E-04-3.61848E-01
 -1        67 4.31475E+00 2.16255E-01 9.23671E-02-9.49026E-03-1.15170E-01 1.53218E-02
 -1        68-3.11528E+00-9.45661E-03-1.59562E-02-7.59963E-02 7.30745E-03-3.10419E-01
 -1        69 3.12254E+00 1.86029E-02 3.17652E-02 7.13898E-02 1.01019E-02-3.12861E-01
 -1        70-4.25194E+00-3.88780E-01-1.50104E-01-1.38310E-02-3.85989E-03 1.04684E-02
 -1        71-1.34718E-02-1.16253E-02-2.67363E-02-2.76732E-03-7.24613E-02-2.86502E-01
 -1        72 4.21994E+00 3.57435E-01 4.96419E-02 1.30243E-02 8.00344E-03 6.52808E-03
 -1        73-1.37439E+00 4.76369E-02-2.15329E-01 1.23448E-02 2.46391E-02-4.42559E-01
 -1        74 1.38236E+00-2.11068E-02 2.39386E-01-1.17610E-02 3.05587E-02-4.42377E-01
 -1        75-1.39907E+00 4.19032E-01-2.40873E-01 5.24703E-02 2.64715E-01-4.36128E-01
 -1        76 1.37270E+00-4.44840E-01 6.29437E-02-5.44079E-02 2.66932E-01-4.37854E-01
 -1        77-1.66190E+00 2.12739E-01 1.10216E-01-8.76885E-02 1.03056E-01 8.18614E-02
 -1        78 4.22678E-03 1.41666E-02 1.23918E-02 1.01252E-03 2.85989E-02-4.53088E-01
 -1        79 1.64853E+00-2.25395E-01-1.15423E-01 8.87133E-02 9.92908E-02 8.15184E-02
 -1        80-1.38962E+00 2.26675E-01-2.47371E-01 4.68154E-02-4.00621E-04-4.16958E-01
 -1        81 1.36849E+00-2.42267E-01 1.29263E-01-4.70792E-02 3.68514E-03-4.19898E-01
 -1        82-1.70646E+00 3.38765E-01 1.23815E-01 1.16428E-02-3.02716E-02 7.89010E-02
 -1        83-1.42398E-02-1.25600E-02-8.91530E-02-4.97298E-04 2.66824E-01-4.48341E-01
 -1        84 1.72581E+00-3.24416E-01-1.00303E-01-1.12205E-02-2.98365E-02 7.90774E-02
 -1       105 3.46957E+00 1.13717E+00 1.38200E+00-1.86616E-01-3.92715E-01 7.19680E-01
 -1       106-3.46153E+00-1.12328E+00-1.37547E+00 1.89112E-01-3.95750E-01 7.24408E-01
 -1       107-3.43382E+00 2.96225E-02 2.68277E-01 1.94919E-01 4.23316E-02 1.72029E-01
 -1       108 3.41517E+00-4.65563E-02-3.34472E-01-1.94285E-01 3.77219E-02 1.71719E-01
 -1       109 4.33600E+00 1.92739E+00 1.87898E+00-2.77823E-06 3.75181E-06-2.04679E-01
 -1       110-4.33340E+00-1.93491E+00-1.88054E+00-3.19884E-06 1.87921E-06-2.05223E-01
 -1       111-3.17701E+00 6.24602E-02 3.99601E-01-1.74632E-02-1.14326E-01 5.32588E-03
 -1       112 3.15763E+00-8.76080E-02-4.53873E-01 1.83943E-02-1.03215E-01 2.97820E-03
 -1       113 3.88250E-03 6.65231E-03 3.16654E-03 1.17770E-03-3.94236E-01 7.38935E-01
 -1       114-3.33808E+00-4.74252E-01-5.15488E-01 2.87307E-01-1.75429E-01 3.08085E-02
 -1       115-9.83226E-03-9.34852E-03-3.34981E-02 4.08500E-04 3.91323E-02 1.79694E-01
 -1       116 3.31455E+00 4.56875E-01 4.42343E-01-2.86671E-01-1.78539E-01 2.81697E-02
 -1       117 3.92699E+00 1.54266E+00 1.64086E+00-1.01230E-01-4.64055E-02 5.63355E-02
 -1       118-3.92235E+00-1.53976E+00-1.63867E+00 1.02637E-01-4.79264E-02 5.68723E-02
 -1       119-3.28404E+00 6.52872E-02 3.76831E-01 9.29460E-02-6.07084E-03 7.52715E-02
 -1       120 3.30019E+00-5.10869E-02-3.54533E-01-9.18372E-02-2.81876E-03 7.36727E-02
 -1       121 1.07337E-03-4.07011E-03-9.00071E-04-7.23470E-07-5.43400E-07-1.87585E-01
 -1       122-3.51683E+00-8.00380E-01-6.20307E-01 6.82743E-02 2.70840E-02 4.01921E-02
 -1       123-1.02206E-02-1.34704E-02-2.75546E-02 4.98597E-04-1.09665E-01 1.19146E-02
 -1       124 3.51363E+00 7.94385E-01 6.12839E-01-6.90206E-02 3.02974E-02 3.84193E-02
 -1       125-3.96734E+00-1.84056E-02 3.18602E-02-2.53510E-02 2.04472E-02 3.92119E-02
 -1       126 3.97869E+00 2.27972E-02-1.12785E-02 2.68998E-02 2.08372E-02 3.57823E-02
 -1       127-3.91691E+00-7.50007E-02 2.58904E-02 1.15951E-02-6.85147E-02 4.43132E-02
 -1       128 3.93233E+00 9.24060E-02 9.62287E-03-1.17992E-02-7.30096E-02 4.15762E-02
 -1       129-3.69047E+00 5.33638E-02 1.72369E-01 7.58894E-02-1.50046E-02-8.55316E-03
 -1       130 5.63765E-03 2.50551E-03 1.04072E-02 8.80982E-04 2.08584E-02 3.53639E-02
 -1       131 3.68203E+00-5.96952E-02-1.86750E-01-7.64603E-02-1.64158E-02-9.80382E-03
 -1       132-3.93348E+00-4.65080E-02 2.10521E-02-7.00722E-03 4.26978E-03 2.31676E-02
 -1       133 3.93416E+00 4.49415E-02-2.15053E-02 7.86875E-03 2.21633E-03 1.93288E-02
 -1       134-3.65303E+00-1.06698E-02 1.77416E-01 2.52011E-04-1.90142E-02-2.24858E-02
 -1       135 7.80052E-03 9.06766E-03 1.79271E-02-5.81654E-05-7.05460E-02 4.08069E-02
 -1       136 3.64416E+00 1.11137E-03-1.94948E-01-6.68984E-04-1.50198E-02-2.26119E-02
 -1       137-3.01682E+00 2.76955E-02 8.70140E-02-1.46882E-01-3.09923E-02-3.23299E-01
 -1       138 3.01900E+00-2.41296E-02-8.67750E-02 1.41709E-01-3.01833E-02-3.28203E-01
 -1       139-3.09584E+00-1.02727E-01 4.73322E-02-2.67699E-02-1.58124E-02-2.62371E-01
 -1       140 3.08030E+00 9.09598E-02-8.35728E-02 2.43025E-02-1.42041E-02-2.66382E-01
 -1       141-4.15347E+00-2.27791E-01-2.10113E-01-9.36232E-02-8.42642E-02-4.86849E-03
 -1       142 9.52763E-04 1.74563E-03 1.01654E-04-2.67158E-03-3.14634E-02-3.32315E-01
 -1       143 4.16079E+00 2.34523E-01 2.18712E-01 9.54008E-02-8.27509E-02-1.03217E-02
 -1       144-3.05441E+00-3.64194E-02 6.90058E-02-8.19258E-02 1.32383E-02-2.61390E-01
 -1       145 3.05025E+00 3.39461E-02-8.39073E-02 7.82821E-02 1.44544E-02-2.65658E-01
 -1       146-4.13991E+00-3.12468E-01-2.31314E-01-1.12207E-02 1.81757E-02 1.61850E-02
 -1       147-8.20192E-03-6.04661E-03-1.82653E-02-1.33347E-03-1.58839E-02-2.71135E-01
 -1       148 4.13402E+00 3.09095E-01 2.05783E-01 1.09793E-02 1.76338E-02 8.96181E-03
 -1       149-1.51744E+00 2.39365E-02-2.51454E-01 4.42713E-02 5.83044E-03-4.06612E-01
 -1       150 1.51753E+00-6.71523E-03 2.56799E-01-4.35256E-02 9.29026E-03-4.08935E-01
 -1       151-1.53361E+00 3.18960E-01-2.84747E-01 4.82307E-02 2.36066E-01-4.23552E-01
 -1       152 1.49919E+00-3.49867E-01 1.10041E-01-5.07547E-02 2.42369E-01-4.28217E-01
 -1       153-1.72252E+00 1.63864E-01 1.26139E-01-5.48190E-02 8.75372E-02 9.06076E-02
 -1       154 1.83733E-04 9.15876E-03 2.90789E-03 8.28201E-04 8.50608E-03-4.17885E-01
 -1       155 1.71599E+00-1.72387E-01-1.24201E-01 5.47874E-02 8.47230E-02 8.77934E-02
 -1       156-1.52207E+00 1.71839E-01-2.70214E-01 5.65233E-02 4.88476E-03-4.05942E-01
 -1       157 1.50491E+00-1.80860E-01 1.78348E-01-5.72278E-02 9.78547E-03-4.09650E-01
 -1       158-1.77624E+00 2.60470E-01 1.43402E-01 9.38259E-03-3.48769E-02 9.04495E-02
 -1       159-1.79393E-02-1.52792E-02-8.74853E-02-8.98603E-04 2.40163E-01-4.36967E-01
 -1       160 1.79732E+00-2.43845E-01-1.13963E-01-8.13057E-03-3.58547E-02 8.84255E-02
 -1       181 3.48775E+00 1.15009E+00 1.39133E+00-1.87329E-01-3.85559E-01 7.17951E-01
 -1       182-3.48784E+00-1.14649E+00-1.39033E+00 1.88270E-01-3.86740E-01 7.19772E-01
 -1       183-3.37381E+00 1.06574E-01 3.13383E-01 1.60780E-01 5.71998E-02 1.40629E-01
 -1       184 3.34755E+00-1.31752E-01-4.05739E-01-1.60633E-01 5.16332E-02 1.39639E-01
 -1       185 4.32085E+00 1.91988E+00 1.87218E+00-2.74704E-06 3.68669E-06-1.94181E-01
 -1       186-4.31922E+00-1.92434E+00-1.87311E+00-3.04784E-06 1.74518E-06-1.94362E-01
 -1       187-3.09789E+00 1.46581E-01 4.54333E-01-1.52530E-02-1.21410E-01-1.00873E-02
 -1       188 3.07788E+00-1.69398E-01-5.10637E-01 1.60547E-02-1.11078E-01-1.15869E-02
 -1       189-1.36525E-04 1.69486E-03 4.73010E-04 3.74772E-04-3.86152E-01 7.34874E-01
 -1       190-3.33872E+00-4.47059E-01-4.89302E-01 2.80903E-01-1.71148E-01 2.75804E-02
 -1       191-1.36335E-02-1.34792E-02-4.65806E-02 1.31315E-04 5.37071E-02 1.46055E-01
 -1       192 3.32219E+00 4.34372E-01 4.41385E-01-2.80302E-01-1.73962E-01 2.47702E-02
 -1       193 3.92316E+00 1.54307E+00 1.63984E+00-1.00892E-01-4.67801E-02 6.35813E-02
 -1       194-3.92278E+00-1.54366E+00-1.63997E+00 1.01317E-01-4.73740E-02 6.29283E-02
 -1       195-3.21693E+00 1.44877E-01 4.26060E-01 7.76305E-02-1.38143E-03 4.96556E-02
 -1       196 3.22911E+00-1.33359E-01-4.17070E-01-7.70365E-02 1.00274E-03 4.82321E-02
 -1       197 6.51655E-04-2.35049E-03-5.11142E-04-6.36267E-07-4.48982E-07-1.77905E-01
 -1       198-3.50661E+00-7.66631E-01-6.05637E-01 7.23314E-02 2.71610E-02 4.55646E-02
 -1       199-1.04725E-02-1.22870E-02-2.85457E-02 4.30826E-04-1.16953E-01-4.98348E-03
 -1       200 3.50007E+00 7.58216E-01 5.92368E-01-7.32727E-02 3.16806E-02 4.40052E-02
 -1       201-3.66936E+00-7.88248E-02-1.34263E-01 1.87589E-03-2.85197E-03 3.56086E-02
 -1       202 3.67703E+00 8.38768E-02 1.48315E-01-6.52567E-04-1.60997E-03 3.16764E-02
 -1       203-3.67242E+00-6.12848E-02-1.41924E-01 6.87938E-03 1.07953E-02 3.78729E-02
 -1       204 3.68033E+00 6.68167E-02 1.54656E-01-8.62430E-03 8.03650E-03 3.40419E-02
 -1       205-3.55792E+00 2.89276E-02 9.43698E-02 4.57401E-02-4.33394E-03-3.00390E-03
 -1       206 3.76981E-03 2.68499E-03 7.08453E-03 6.44793E-04-1.96104E-03 3.33463E-02
 -1       207 3.55121E+00-3.32055E-02-1.08625E-01-4.56833E-02-5.68003E-03-3.77957E-03
 -1       208-3.66477E+00-6.99063E-02-1.43569E-01 4.56295E-03-3.85683E-03 1.57217E-02
 -1       209 3.66384E+00 6.65118E-02 1.37027E-01-4.69479E-03-4.61497E-03 1.11524E-02
 -1       210-3.52554E+00 1.02571E-02 1.06948E-01-1.00232E-02-7.61766E-03-2.13594E-02
 -1       211 3.87178E-03 2.91562E-03 6.41585E-03-8.96661E-04 9.68581E-03 3.55358E-02
 -1       212 3.51668E+00-2.11270E-02-1.25093E-01 1.01230E-02-3.00898E-03-2.28740E-02
 -1       213-3.84780E+00 3.60328E-02 1.39534E-01-1.56497E-02 1.57801E-02 1.41177E-02
 -1       214 3.85124E+00-3.62451E-02-1.37653E-01 1.53463E-02 1.51800E-02 7.88243E-03
 -1       215-3.82300E+00-2.59191E-02 1.39433E-01 2.85847E-04-5.41550E-02 1.49185E-02
 -1       216 3.82685E+00 2.85459E-02-1.31655E-01 1.03206E-03-5.35123E-02 9.50602E-03
 -1       217-3.68401E+00 1.58010E-02 3.24270E-02 5.82392E-03-2.51965E-03-2.14654E-03
 -1       218 1.54713E-03-1.87010E-04 8.93166E-04-1.05035E-04 1.52732E-02 1.08497E-02
 -1       219 3.68209E+00-1.74786E-02-3.54090E-02-6.07747E-03-2.57570E-03-7.16939E-03
 -1       220-3.83277E+00 6.87490E-03 1.43075E-01-9.04406E-03 7.67253E-03 2.65681E-02
 -1       221 3.83846E+00-3.41247E-03-1.32444E-01 9.62503E-03 7.69096E-03 2.08942E-02
 -1       222-3.68582E+00-1.04827E-02 2.76401E-02 8.06658E-03-1.47356E-02 1.69057E-03
 -1       223 1.80618E-03 1.25656E-03 3.86361E-03 7.12584E-04-5.40405E-02 1.23210E-02
 -1       224 3.68689E+00 1.43186E-02-1.81362E-02-8.20656E-03-1.61841E-02-2.69876E-03
 -1       225-3.03322E+00 1.08771E-02 5.41712E-02-1.34820E-01-3.11404E-02-2.92852E-01
 -1       226 3.03836E+00-5.55431E-03-4.93966E-02 1.31134E-01-3.00789E-02-2.99317E-01
 -1       227-3.11112E+00-1.21415E-01 5.26679E-03-2.21574E-02-2.28129E-02-2.39236E-01
 -1       228 3.09422E+00 1.09544E-01-4.77196E-02 1.93285E-02-2.16611E-02-2.45313E-01
 -1       229-4.09461E+00-2.09235E-01-1.70665E-01-8.09126E-02-8.09467E-02-6.53474E-03
 -1       230 2.46221E-03 2.72541E-03 2.41329E-03-1.89039E-03-3.13760E-02-3.02320E-01
 -1       231 4.09729E+00 2.11986E-01 1.70611E-01 8.22756E-02-8.05672E-02-1.41052E-02
 -1       232-3.06971E+00-5.46902E-02 2.92797E-02-7.43261E-02 9.95890E-03-2.42553E-01
 -1       233 3.06335E+00 5.02599E-02-5.13108E-02 7.12962E-02 1.10742E-02-2.48976E-01
 -1       234-4.08416E+00-2.90992E-01-1.80922E-01-1.43345E-02 2.04098E-02 1.29526E-02
 -1       235-8.77223E-03-5.95990E-03-2.12905E-02-1.49854E-03-2.30033E-02-2.48790E-01
 -1       236 4.07806E+00 2.86452E-01 1.57856E-01 1.42027E-02 2.14452E-02 3.98906E-03
 -1       237-1.59893E+00 1.65332E-02-2.29707E-01 3.36700E-02-1.89377E-03-4.02199E-01
 -1       238 1.59847E+00 6.58129E-04 2.33014E-01-3.31537E-02 1.79071E-03-4.05793E-01
 -1       239-1.60239E+00 2.80546E-01-2.57572E-01 4.03644E-02 2.13941E-01-4.14864E-01
 -1       240 1.56984E+00-3.07980E-01 1.01732E-01-4.20312E-02 2.18935E-01-4.20848E-01
 -1       241-1.78317E+00 1.52550E-01 1.18116E-01-5.38155E-02 8.04416E-02 8.96857E-02
 -1       242-1.26110E-04 9.06555E-03 1.85974E-03 6.14971E-04 8.61354E-04-4.12590E-01
 -1       243 1.77908E+00-1.59354E-01-1.12708E-01 5.38040E-02 7.81271E-02 8.55492E-02
 -1       244-1.59973E+00 1.47497E-01-2.48004E-01 4.57295E-02 3.30634E-03-3.97147E-01
 -1       245 1.58197E+00-1.56038E-01 1.61676E-01-4.63360E-02 7.66777E-03-4.02078E-01
 -1       246-1.82531E+00 2.33821E-01 1.32496E-01 8.28491E-03-3.67814E-02 9.14009E-02
 -1       247-1.68415E-02-1.35359E-02-7.79970E-02-5.35784E-04 2.17351E-01-4.27289E-01
 -1       248 1.84614E+00-2.17185E-01-1.01222E-01-7.20236E-03-3.83805E-02 8.81177E-02
 -1       269 3.50704E+00 1.15996E+00 1.40008E+00-1.86561E-01-3.83072E-01 7.17560E-01
 -1       270-3.50844E+00-1.16033E+00-1.40066E+00 1.86834E-01-3.83340E-01 7.18006E-01
 -1       271-3.38671E+00 1.18308E-01 3.14966E-01 1.58483E-01 6.39991E-02 1.41295E-01
 -1       272 3.36657E+00-1.38853E-01-3.88569E-01-1.58457E-01 5.95528E-02 1.39891E-01
 -1       273 4.31170E+00 1.91614E+00 1.86831E+00-2.92142E-06 3.65121E-06-1.88506E-01
 -1       274-4.31012E+00-1.91784E+00-1.86843E+00-3.21407E-06 1.62647E-06-1.88475E-01
 -1       275-3.11207E+00 1.76952E-01 4.53328E-01-1.77263E-02-1.15436E-01-8.51246E-03
 -1       276 3.09759E+00-1.93277E-01-4.97343E-01 1.81549E-02-1.07807E-01-1.01357E-02
 -1       277-7.68169E-04-2.03052E-04-2.86142E-04 6.54305E-05-3.83209E-01 7.33088E-01
 -1       278-3.33600E+00-4.36198E-01-4.79169E-01 2.79031E-01-1.68630E-01 2.33012E-02
 -1       279-1.04710E-02-1.09184E-02-3.70989E-02 3.89161E-05 6.11718E-02 1.46466E-01
 -1       280 3.32606E+00 4.28207E-01 4.52586E-01-2.78479E-01-1.70640E-01 2.10556E-02
 -1       281 3.92790E+00 1.54599E+00 1.64214E+00-1.00553E-01-4.71158E-02 6.91114E-02
 -1       282-3.92817E+00-1.54718E+00-1.64264E+00 1.00609E-01-4.72532E-02 6.82997E-02
 -1       283-3.23350E+00 1.62031E-01 4.16391E-01 7.48258E-02-1.84382E-03 5.48200E-02
 -1       284 3.24253E+00-1.53994E-01-4.13043E-01-7.45603E-02-2.50489E-04 5.32060E-02
 -1       285 6.75723E-04-8.64112E-04-5.82249E-05-8.41417E-07-3.57309E-07-1.72897E-01
 -1       286-3.49807E+00-7.42275E-01-6.00889E-01 7.12796E-02 3.39637E-02 4.41973E-02
 -1       287-7.61721E-03-8.80276E-03-2.23024E-02 2.26656E-04-1.12225E-01-3.52494E-03
 -1       288 3.49137E+00 7.35026E-01 5.87886E-01-7.20417E-02 3.78329E-02 4.27336E-02
 -1       289-3.61323E+00-2.47040E-02-7.12378E-02-1.62074E-02 8.42001E-03 6.63708E-03
 -1       290 3.61878E+00 2.78439E-02 7.84411E-02 1.67763E-02 9.23615E-03 2.32585E-03
 -1       291-3.61199E+00-1.92604E-02-8.20017E-02 1.24296E-02-8.82755E-03 1.93972E-02
 -1       292 3.61711E+00 2.23356E-02 8.92970E-02-1.37304E-02-1.04857E-02 1.59430E-02
 -1       293-3.59465E+00 4.03274E-02 1.01835E-01 3.72362E-02-1.15827E-03-1.56018E-03
 -1       294 2.67901E-03 1.63761E-03 3.62386E-03 3.07946E-04 9.13788E-03 2.83329E-03
 -1       295 3.58944E+00-4.37601E-02-1.12197E-01-3.73814E-02-2.25483E-03-2.90905E-03
 -1       296-3.60726E+00-2.11505E-02-7.90448E-02-9.15707E-04-3.39015E-03-1.21986E-02
 -1       297 3.60713E+00 1.89956E-02 7.45187E-02 5.88687E-04-3.81013E-03-1.65216E-02
 -1       298-3.56334E+00 2.41630E-02 1.11605E-01-8.95204E-03-1.01429E-02-1.85012E-02
 -1       299 2.47841E-03 1.61019E-03 3.67530E-03-6.58647E-04-9.34683E-03 1.58800E-02
 -1       300 3.55582E+00-3.26442E-02-1.25894E-01 9.22198E-03-6.43522E-03-2.03801E-02
 -1       301-3.54865E+00-2.25940E-02-3.13583E-02 2.26101E-03-1.21722E-03 4.85685E-03
 -1       302 3.55259E+00 2.47609E-02 3.21840E-02-2.13380E-03-1.13370E-03-9.66903E-04
 -1       303-3.55547E+00-5.43086E-03-3.09764E-02-8.25175E-03 1.28268E-02 8.94430E-04
 -1       304 3.55444E+00 1.11271E-04 2.16855E-02 8.43906E-03 1.46596E-02-5.31981E-03
 -1       305-3.56044E+00-1.02118E-02-4.57961E-02-9.36707E-03-9.92694E-04 4.95401E-03
 -1       306 1.78492E-03 9.20252E-04 3.32109E-04 5.78599E-05-1.18674E-03 3.06443E-03
 -1       307 3.55701E+00 7.73141E-03 3.64583E-02 9.74960E-03-1.38077E-03 9.17161E-05
 -1       308-3.55100E+00-1.22932E-02-2.63526E-02-3.73373E-03-2.10801E-03 1.29904E-02
 -1       309 3.55692E+00 1.51589E-02 3.27528E-02 3.89097E-03-1.15085E-03 7.04288E-03
 -1       310-3.54951E+00 9.83149E-03-3.55656E-02 1.66747E-03 1.27097E-02 5.63844E-03
 -1       311-7.33709E-04-2.83822E-03-4.74122E-03 9.19980E-05 1.37320E-02-1.00035E-03
 -1       312 3.55034E+00-7.38455E-03 4.32821E-02-1.75053E-03 1.19612E-02 4.68625E-04
 -1       313-3.73434E+00 3.03854E-02 1.03447E-01-1.43736E-02 1.50558E-02 2.31851E-02
 -1       314 3.74068E+00-2.79612E-02-9.51794E-02 1.41287E-02 1.51388E-02 1.52121E-02
 -1       315-3.70822E+00-1.74706E-02 1.01391E-01 4.58855E-03-4.57672E-02 2.25534E-02
 -1       316 3.71366E+00 2.17271E-02-9.03260E-02-3.84175E-03-4.63491E-02 1.50173E-02
 -1       317-3.54786E+00 4.19739E-02 7.12077E-02 7.17531E-03 7.46118E-03-4.19159E-03
 -1       318 3.04428E-03 1.21822E-03 4.12650E-03-7.76229E-05 1.50198E-02 1.87114E-02
 -1       319 3.54348E+00-4.51069E-02-7.98476E-02-7.84247E-03 7.10424E-03-1.09750E-02
 -1       320-3.71869E+00 7.10499E-03 1.02146E-01-5.99285E-03 6.07128E-03 2.82262E-02
 -1       321 3.72232E+00-5.65828E-03-9.62147E-02 6.38049E-03 5.81872E-03 2.04364E-02
 -1       322-3.55421E+00 2.13626E-02 6.88231E-02 3.04402E-03-1.97771E-02 1.50332E-03
 -1       323 2.63739E-03 2.15319E-03 5.54277E-03 4.05311E-04-4.61356E-02 1.84532E-02
 -1       324 3.55234E+00-2.18029E-02-6.81697E-02-2.95904E-03-1.96082E-02-4.58759E-03
 -1       325-2.99770E+00-3.13660E-03 5.24783E-02-1.24149E-01-2.48956E-02-2.70510E-01
 -1       326 2.99724E+00 2.99802E-03-5.92963E-02 1.21725E-01-2.49858E-02-2.78635E-01
 -1       327-3.06339E+00-1.13705E-01 1.03570E-02-2.14080E-02-2.60408E-02-2.22346E-01
 -1       328 3.04479E+00 1.00316E-01-5.97801E-02 1.88792E-02-2.36596E-02-2.30229E-01
 -1       329-3.99143E+00-2.05436E-01-1.75701E-01-7.74864E-02-7.69643E-02-6.74805E-03
 -1       330-3.84744E-04-5.90643E-05-3.41249E-03-1.22495E-03-2.55982E-02-2.80009E-01
 -1       331 3.99359E+00 2.07037E-01 1.75690E-01 7.91113E-02-7.70810E-02-1.68578E-02
 -1       332-3.02690E+00-5.61840E-02 3.53234E-02-6.99650E-02 5.57063E-03-2.22238E-01
 -1       333 3.02110E+00 5.23709E-02-5.71542E-02 6.76238E-02 6.72372E-03-2.30640E-01
 -1       334-3.97707E+00-2.69646E-01-1.81897E-01-1.27012E-02 2.80728E-02 1.00578E-02
 -1       335-9.57326E-03-6.73183E-03-2.47634E-02-1.31465E-03-2.55076E-02-2.31899E-01
 -1       336 3.97280E+00 2.67599E-01 1.65829E-01 1.21836E-02 2.88555E-02-1.09222E-03
 -1       337-1.64598E+00 9.77915E-03-2.22842E-01 7.00098E-03-1.27160E-02-3.98433E-01
 -1       338 1.64875E+00 1.09156E-02 2.24990E-01-6.15609E-03-7.13109E-03-4.02883E-01
 -1       339-1.64251E+00 1.91781E-01-2.35633E-01 2.79242E-02 1.50479E-01-4.06653E-01
 -1       340 1.62806E+00-2.00089E-01 1.41451E-01-2.76979E-02 1.47336E-01-4.12901E-01
 -1       341-1.80600E+00 1.52432E-01 1.26215E-01-5.90077E-02 6.71063E-02 8.44539E-02
 -1       342 1.44028E-03 1.08871E-02 1.29120E-03 6.68807E-04-9.26967E-03-4.08578E-01
 -1       343 1.80936E+00-1.51303E-01-1.06814E-01 5.85038E-02 6.67418E-02 7.97330E-02
 -1       344-1.65139E+00 9.15215E-02-2.52916E-01 2.34243E-02-1.23020E-03-3.89680E-01
 -1       345 1.62775E+00-1.05349E-01 1.58041E-01-2.31028E-02 9.77968E-06-3.95992E-01
 -1       346-1.84116E+00 1.97069E-01 1.32496E-01 3.74874E-03-3.92410E-02 9.31803E-02
 -1       347-7.53640E-03-3.77348E-03-4.70289E-02 2.82500E-04 1.49562E-01-4.18326E-01
 -1       348 1.86260E+00-1.80434E-01-9.63010E-02-2.77759E-03-4.27239E-02 8.90963E-02
 -1       369 3.51046E+00 1.15681E+00 1.40016E+00-1.83945E-01-3.83876E-01 7.17743E-01
 -1       370-3.50951E+00-1.15751E+00-1.40013E+00 1.84132E-01-3.83774E-01 7.17609E-01
 -1       371-3.39487E+00 1.44997E-01 3.39939E-01 1.53563E-01 6.68969E-02 1.37758E-01
 -1       372 3.38859E+00-1.53644E-01-3.71443E-01-1.53605E-01 6.50033E-02 1.36129E-01
 -1       373 4.29991E+00 1.91540E+00 1.86455E+00-2.97354E-06 3.64112E-06-1.69692E-01
 -1       374-4.29749E+00-1.91513E+00-1.86383E+00-3.26675E-06 1.69209E-06-1.69618E-01
 -1       375-3.12599E+00 1.96588E-01 4.67439E-01-1.63322E-02-1.19457E-01-9.15209E-03
 -1       376 3.12155E+00-2.03067E-01-4.86935E-01 1.64771E-02-1.16198E-01-1.08045E-02
 -1       377 4.10625E-04-3.33487E-04 2.82770E-05 6.78235E-05-3.83828E-01 7.32581E-01
 -1       378-3.33521E+00-4.21289E-01-4.65905E-01 2.76848E-01-1.66412E-01 1.95028E-02
 -1       379-3.38094E-03-4.60241E-03-1.58909E-02-1.11457E-05 6.53246E-02 1.42578E-01
 -1       380 3.33163E+00 4.18231E-01 4.57589E-01-2.76497E-01-1.67191E-01 1.81672E-02
 -1       381 3.92237E+00 1.54347E+00 1.63972E+00-9.90807E-02-4.49087E-02 7.91911E-02
 -1       382-3.92102E+00-1.54382E+00-1.63949E+00 9.91346E-02-4.48613E-02 7.87393E-02
 -1       383-3.25263E+00 1.77326E-01 4.17803E-01 7.31285E-02-7.70775E-04 5.24540E-02
 -1       384 3.25826E+00-1.73797E-01-4.17051E-01-7.30643E-02-8.63021E-05 5.07486E-02
 -1       385 1.12155E-03 1.62330E-04 3.83185E-04-9.13611E-07-3.67916E-07-1.54459E-01
 -1       386-3.49992E+00-7.34247E-01-5.95414E-01 7.20501E-02 2.70281E-02 4.20782E-02
 -1       387-2.44702E-03-3.51608E-03-9.88724E-03 7.39439E-05-1.18453E-01-4.41585E-03
 -1       388 3.49598E+00 7.30719E-01 5.88478E-01-7.24295E-02 2.88495E-02 4.09791E-02
 -1       389-3.60035E+00-3.78783E-02-8.61754E-02-1.70623E-02 5.77714E-03 1.14681E-03
 -1       390 3.60558E+00 3.98102E-02 9.00914E-02 1.74005E-02 6.20191E-03-2.96326E-03
 -1       391-3.60392E+00-2.17349E-02-9.43619E-02 1.03335E-02 2.88840E-03 1.65514E-02
 -1       392 3.60919E+00 2.47342E-02 1.00522E-01-1.08594E-02 1.71096E-03 1.27291E-02
 -1       393-3.60307E+00 4.17903E-02 9.68615E-02 2.89076E-02-1.50164E-03 1.37839E-03
 -1       394 2.50927E-03 1.00672E-03 1.96900E-03 1.79463E-04 6.29991E-03-2.27148E-03
 -1       395 3.60126E+00-4.30149E-02-1.00105E-01-2.90068E-02-1.92566E-03-9.12294E-04
 -1       396-3.59564E+00-2.79988E-02-9.05925E-02-2.58526E-03-3.16014E-03-1.30067E-02
 -1       397 3.59718E+00 2.69211E-02 8.78240E-02 2.49730E-03-3.53553E-03-1.71327E-02
 -1       398-3.56995E+00 3.18746E-02 1.10145E-01-1.14009E-02-6.28462E-03-1.61508E-02
 -1       399 2.53626E-03 1.54113E-03 3.09234E-03-2.63119E-04 2.61006E-03 1.31282E-02
 -1       400 3.56640E+00-3.48790E-02-1.14841E-01 1.14989E-02-4.92687E-03-1.86050E-02
 -1       401-3.53206E+00 2.37593E-02 3.08687E-02-1.18310E-03 7.81192E-03-4.35893E-03
 -1       402 3.53566E+00-2.32430E-02-3.37066E-02 8.53304E-04 7.65396E-03-1.05214E-02
 -1       403-3.52792E+00 2.76799E-02 3.19131E-02-2.23824E-03-5.62192E-03-3.88426E-03
 -1       404 3.52877E+00-2.99597E-02-3.80183E-02 2.43552E-03-4.55741E-03-9.84284E-03
 -1       405-3.54648E+00 4.41004E-03-1.82338E-02-5.61809E-03 3.44687E-03 4.43342E-03
 -1       406 1.63600E-03 1.53431E-04-1.47440E-03-1.75022E-04 7.74677E-03-7.42031E-03
 -1       407 3.54559E+00-4.81881E-03 1.68148E-02 5.69090E-03 3.44471E-03-5.74762E-04
 -1       408-3.53102E+00 2.60738E-02 3.37516E-02-1.76169E-03-5.50940E-06 1.87096E-03
 -1       409 3.53571E+00-2.43043E-02-3.15591E-02 1.67859E-03 4.47719E-04-4.08355E-03
 -1       410-3.54385E+00 1.59335E-02-1.91857E-02 4.59398E-03 2.83846E-03 5.45741E-03
 -1       411 2.58714E-04-1.24416E-03-3.10752E-03 9.69463E-05-5.07583E-03-6.78728E-03
 -1       412 3.54291E+00-1.56774E-02 2.10403E-02-4.51508E-03 2.64240E-03 3.41353E-04
 -1       413-3.48290E+00-1.68697E-02-4.21813E-02-6.96902E-03 2.39926E-03-8.77327E-03
 -1       414 3.48728E+00 1.82307E-02 4.35049E-02 7.60564E-03 2.33888E-03-1.62686E-02
 -1       415-3.48076E+00-5.20292E-04-4.05535E-02-2.58750E-03 5.91065E-03-7.84616E-03
 -1       416 3.48233E+00-1.04667E-03 3.80311E-02 2.11474E-03 6.75332E-03-1.57577E-02
 -1       417-3.53954E+00-5.40057E-03-2.07198E-02-6.08584E-03-7.00580E-04 4.17252E-03
 -1       418 2.05130E-03 6.00452E-04 6.21544E-04 3.32766E-04 2.43778E-03-1.23198E-02
 -1       419 3.53613E+00 2.65641E-03 1.10547E-02 6.19189E-03-1.27158E-03-2.64522E-03
 -1       420-3.47971E+00-7.19373E-03-3.83466E-02-5.10238E-03-1.87673E-03-5.95705E-03
 -1       421 3.48471E+00 9.14262E-03 4.28385E-02 5.20608E-03-1.48622E-03-1.38543E-02
 -1       422-3.53144E+00 8.43195E-03-1.20176E-02-2.78537E-03 8.75958E-03 5.65856E-03
 -1       423 6.21358E-04-8.75264E-04-1.31291E-03-2.38664E-04 6.40073E-03-1.16097E-02
 -1       424 3.52969E+00-8.99337E-03 1.11776E-02 2.69703E-03 9.25358E-03-1.22758E-03
 -1       425-3.45656E+00 3.58315E-02 1.01457E-01-1.69252E-02 2.17692E-02-4.07345E-03
 -1       426 3.46850E+00-2.89452E-02-8.29645E-02 1.58155E-02 2.25688E-02-1.49825E-02
 -1       427-3.44029E+00 1.34636E-02 9.69693E-02-3.18573E-04-3.93050E-02-8.23435E-03
 -1       428 3.44862E+00-6.03322E-03-8.03833E-02 1.23312E-03-4.16160E-02-1.78615E-02
 -1       429-3.40069E+00 4.25858E-02 5.90001E-02-7.45287E-03 7.87596E-03 1.03425E-03
 -1       430 5.86499E-03 3.57077E-03 9.27973E-03-5.44766E-04 2.22208E-02-1.04647E-02
 -1       431 3.40032E+00-4.23810E-02-5.53912E-02 6.95173E-03 8.17406E-03-7.65093E-03
 -1       432-3.44736E+00 2.30168E-02 9.28513E-02-9.56738E-03 1.61860E-03 9.71196E-03
 -1       433 3.44970E+00-2.33723E-02-9.22888E-02 9.48651E-03 8.59911E-04-2.81643E-04
 -1       434-3.40199E+00 3.53543E-02 5.40035E-02 2.70615E-04-1.06884E-02 5.85825E-03
 -1       435 4.12715E-03 3.87288E-03 8.35579E-03 4.88021E-04-4.04088E-02-1.39069E-02
 -1       436 3.40163E+00-3.44039E-02-5.00219E-02-1.01257E-04-1.15021E-02-2.33665E-03
 -1       437-2.72487E+00-2.14128E-02 1.35851E-02-1.75969E-01 5.28753E-03-2.70214E-01
 -1       438 2.73582E+00 2.89878E-02-1.50135E-02 1.77286E-01 4.59194E-03-2.78603E-01
 -1       439-2.71186E+00-9.56727E-02-1.27089E-02-2.26767E-02-8.56235E-02-2.19054E-01
 -1       440 2.69146E+00 7.52866E-02-4.43768E-02 1.77755E-02-7.86091E-02-2.26934E-01
 -1       441-3.62216E+00-1.62077E-01-1.59401E-01-8.58021E-02-6.07936E-02-3.04719E-03
 -1       442 5.45841E-03 3.50580E-03-7.69630E-04 7.03165E-04 4.67409E-03-2.78425E-01
 -1       443 3.61889E+00 1.59613E-01 1.47207E-01 8.73799E-02-6.14536E-02-1.35221E-02
 -1       444-2.70214E+00-4.71520E-02 2.22561E-02-9.97308E-02-1.34972E-02-1.99404E-01
 -1       445 2.71330E+00 5.64295E-02-1.49706E-02 9.83351E-02-1.03397E-02-2.09072E-01
 -1       446-3.58224E+00-1.96948E-01-1.55225E-01-9.07940E-03 3.17160E-02 2.44817E-02
 -1       447-1.04991E-02-1.05943E-02-2.87195E-02-2.53721E-03-8.23817E-02-2.27003E-01
 -1       448 3.57836E+00 1.93223E-01 1.38953E-01 8.70677E-03 3.33099E-02 1.24238E-02
 -1       449-1.53552E+00-3.96193E-01-4.72726E-02-2.43312E-01-1.53702E-01-4.36852E-01
 -1       450 1.62954E+00 4.86380E-01 3.55012E-01 2.32479E-01-1.36528E-01-4.37379E-01
 -1       451-1.58852E+00-5.23692E-01-1.97831E-01-2.38190E-02 9.27990E-07-3.65734E-01
 -1       452 1.61766E+00 5.55226E-01 2.77507E-01 2.29136E-02-1.99043E-02-3.69488E-01
 -1       453-1.63615E+00-1.04341E-02 1.42920E-01-2.18567E-01-2.16339E-02 2.02807E-02
 -1       454 4.84988E-02 4.75400E-02 1.55079E-01-4.70041E-03-1.45096E-01-4.42005E-01
 -1       455 1.64439E+00 1.44130E-02-1.12426E-01 2.18072E-01-1.98410E-02 1.60208E-02
 -1       456-1.59641E+00-4.99589E-01-2.20330E-01-1.33424E-01-4.56805E-02-3.49335E-01
 -1       457 1.57293E+00 4.74185E-01 2.11525E-01 1.28363E-01-4.70467E-02-3.55451E-01
 -1       458-1.62906E+00-7.76854E-02 1.39440E-01-2.27174E-02 8.64445E-03 7.80907E-02
 -1       459 1.52986E-02 1.78902E-02 4.07242E-02-7.49876E-05-9.93188E-03-3.72633E-01
 -1       460 1.65699E+00 1.11450E-01-7.50884E-02 2.42315E-02-4.21967E-03 7.51515E-02
 -3
    1PSTEP                         3          50           1          
  100CL  101 2.90379E-02         110                     0    1           1
 -4  CONTACT     6    1
 -5  COPEN       1    4    1    1
 -5  CSLIP1      1    4    2    2
 -5  CSLIP2      1    4    3    3
 -5  CPRESS      1    4    1    2
 -5  CSHEAR1     1    4    2    3
 -5  CSHEAR2     1    4    3    1
 -1       348 0.00000E+00 0.00000E+00 0.00000E+00-1.00000E-03 0.00000E+00 0.00000E+00
 -1       345-3.07460E-08 0.00000E+00 0.00000E+00 2.97495E-02 0.00000E+00 0.00000E+00
 -1       343 0.00000E+00 0.00000E+00 0.00000E+00-1.00000E-03 0.00000E+00 0.00000E+00
 -1       340-1.72126E-07 0.00000E+00 0.00000E+00 1.71126E-01 0.00000E+00 0.00000E+00
 -1       338 0.00000E+00 0.00000E+00 0.00000E+00-1.00000E-03 0.00000E+00 0.00000E+00
 -1       336 0.00000E+00 0.00000E+00 0.00000E+00-1.00000E-03 0.00000E+00 0.00000E+00
 -1       333 0.00000E+00 0.00000E+00 0.00000E+00-1.00000E-03 0.00000E+00 0.00000E+00
 -1       331 0.00000E+00 0.00000E+00 0.00000E+00-1.00000E-03 0.00000E+00 0.00000E+00
 -1       328 0.00000E+00 0.00000E+00 0.00000E+00-1.00000E-03 0.00000E+00 0.00000E+00
 -1       326 0.00000E+00 0.00000E+00 0.00000E+00-1.00000E-03 0.00000E+00 0.00000E+00
 -1       324-4.68869E-10 0.00000E+00 0.00000E+00 2.56545E-04 0.00000E+00 0.00000E+00
 -1       321 0.00000E+00 0.00000E+00 0.00000E+00-1.00000E-03 0.00000E+00 0.00000E+00
 -1       319-4.21536E-09 0.00000E+00 0.00000E+00 3.35598E-03 0.00000E+00 0.00000E+00
 -1       316 0.00000E+00 0.00000E+00 0.00000E+00-1.00000E-03 0.00000E+00 0.00000E+00
 -1       314 0.00000E+00 0.00000E+00 0.00000E+00-1.00000E-03 0.00000E+00 0.00000E+00
 -1       312 0.00000E+00 0.00000E+00 0.00000E+00-6.38281E-04 0.00000E+00 0.00000E+00
 -1       309-2.12956E-10 0.00000E+00 0.00000E+00 1.11066E-04 0.00000E+00 0.00000E+00
 -1       307-1.15659E-09 0.00000E+00 0.00000E+00 7.08161E-04 0.00000E+00 0.00000E+00
 -1       304-4.71484E-09 0.00000E+00 0.00000E+00 3.83274E-03 0.00000E+00 0.00000E+00
 -1       302 0.00000E+00 0.00000E+00 0.00000E+00-1.00000E-03 0.00000E+00 0.00000E+00
 -1       300 0.00000E+00 0.00000E+00 0.00000E+00-1.00000E-03 0.00000E+00 0.00000E+00
 -1       297 0.00000E+00 0.00000E+00 0.00000E+00-9.99998E-04 0.00000E+00 0.00000E+00
 -1       295 0.00000E+00 0.00000E+00 0.00000E+00-1.00000E-03 0.00000E+00 0.00000E+00
 -1       292 0.00000E+00 0.00000E+00 0.00000E+00-9.99958E-04 0.00000E+00 0.00000E+00
 -1       290-2.65405E-09 0.00000E+00 0.00000E+00 1.91964E-03 0.00000E+00 0.00000E+00
 -1       288 0.00000E+00 0.00000E+00 0.00000E+00-9.99999E-04 0.00000E+00 0.00000E+00
 -1       284 0.00000E+00 0.00000E+00 0.00000E+00-8.53309E-04 0.00000E+00 0.00000E+00
 -1       281-2.31795E-21 0.00000E+00 0.00000E+00 1.15897E-15 0.00000E+00 0.00000E+00
 -1       280 0.00000E+00 0.00000E+00 0.00000E+00-2.46670E-04 0.00000E+00 0.00000E+00
 -1       276-5.25407E-08 0.00000E+00 0.00000E+00 5.15419E-02 0.00000E+00 0.00000E+00
 -1       273 0.00000E+00 0.00000E+00 0.00000E+00-1.77636E-09 0.00000E+00 0.00000E+00
 -1       272-8.04381E-08 0.00000E+00 0.00000E+00 7.94386E-02 0.00000E+00 0.00000E+00
 -1       269 0.00000E+00 0.00000E+00 0.00000E+00-1.77634E-09 0.00000E+00 0.00000E+00
 -1       248 0.00000E+00 0.00000E+00 0.00000E+00-1.00000E-03 0.00000E+00 0.00000E+00
 -1       245-2.79101E-08 0.00000E+00 0.00000E+00 2.69143E-02 0.00000E+00 0.00000E+00
 -1       243 0.00000E+00 0.00000E+00 0.00000E+00-1.00000E-03 0.00000E+00 0.00000E+00
 -1       240-3.01943E-07 0.00000E+00 0.00000E+00 3.00943E-01 0.00000E+00 0.00000E+00
 -1       238 0.00000E+00 0.00000E+00 0.00000E+00-1.00000E-03 0.00000E+00 0.00000E+00
 -1       236 0.00000E+00 0.00000E+00 0.00000E+00-1.00000E-03 0.00000E+00 0.00000E+00
 -1       233 0.00000E+00 0.00000E+00 0.00000E+00-1.00000E-03 0.00000E+00 0.00000E+00
 -1       231 0.00000E+00 0.00000E+00 0.00000E+00-1.00000E-03 0.00000E+00 0.00000E+00
 -1       228 0.00000E+00 0.00000E+00 0.00000E+00-1.00000E-03 0.00000E+00 0.00000E+00
 -1       226 0.00000E+00 0.00000E+00 0.00000E+00-1.00000E-03 0.00000E+00 0.00000E+00
 -1       224 0.00000E+00 0.00000E+00 0.00000E+00-1.00000E-03 0.00000E+00 0.00000E+00
 -1       221 0.00000E+00 0.00000E+00 0.00000E+00-1.00000E-03 0.00000E+00 0.00000E+00
 -1       219-4.75402E-09 0.00000E+00 0.00000E+00 3.87036E-03 0.00000E+00 0.00000E+00
 -1       216 0.00000E+00 0.00000E+00 0.00000E+00-1.00000E-03 0.00000E+00 0.00000E+00
 -1       214 0.00000E+00 0.00000E+00 0.00000E+00-1.00000E-03 0.00000E+00 0.00000E+00
 -1       212 0.00000E+00 0.00000E+00 0.00000E+00-1.00000E-03 0.00000E+00 0.00000E+00
 -1       209 0.00000E+00 0.00000E+00 0.00000E+00-9.99985E-04 0.00000E+00 0.00000E+00
 -1       207 0.00000E+00 0.00000E+00 0.00000E+00-1.00000E-03 0.00000E+00 0.00000E+00
 -1       204-9.50700E-09 0.00000E+00 0.00000E+00 8.54118E-03 0.00000E+00 0.00000E+00
 -1       202 0.00000E+00 0.00000E+00 0.00000E+00-1.00000E-03 0.00000E+00 0.00000E+00
 -1       200 0.00000E+00 0.00000E+00 0.00000E+00-9.99993E-04 0.00000E+00 0.00000E+00
 -1       196 0.00000E+00 0.00000E+00 0.00000E+00-9.99995E-04 0.00000E+00 0.00000E+00
 -1       193-1.95856E-21 0.00000E+00 0.00000E+00 9.79281E-16 0.00000E+00 0.00000E+00
 -1       192-4.91701E-09 0.00000E+00 0.00000E+00 4.02716E-03 0.00000E+00 0.00000E+00
 -1       188-5.33618E-08 0.00000E+00 0.00000E+00 5.23630E-02 0.00000E+00 0.00000E+00
 -1       185 0.00000E+00 0.00000E+00 0.00000E+00-2.69875E-15 0.00000E+00 0.00000E+00
 -1       184-1.01484E-07 0.00000E+00 0.00000E+00 1.00484E-01 0.00000E+00 0.00000E+00
 -1       181 0.00000E+00 0.00000E+00 0.00000E+00-1.77635E-09 0.00000E+00 0.00000E+00
 -1       160 0.00000E+00 0.00000E+00 0.00000E+00-1.00000E-03 0.00000E+00 0.00000E+00
 -1       157-2.97291E-08 0.00000E+00 0.00000E+00 2.87328E-02 0.00000E+00 0.00000E+00
 -1       155 0.00000E+00 0.00000E+00 0.00000E+00-1.00000E-03 0.00000E+00 0.00000E+00
 -1       152-3.52800E-07 0.00000E+00 0.00000E+00 3.51800E-01 0.00000E+00 0.00000E+00
 -1       150 0.00000E+00 0.00000E+00 0.00000E+00-1.00000E-03 0.00000E+00 0.00000E+00
 -1       148 0.00000E+00 0.00000E+00 0.00000E+00-1.00000E-03 0.00000E+00 0.00000E+00
 -1       145 0.00000E+00 0.00000E+00 0.00000E+00-1.00000E-03 0.00000E+00 0.00000E+00
 -1       143 0.00000E+00 0.00000E+00 0.00000E+00-1.00000E-03 0.00000E+00 0.00000E+00
 -1       140 0.00000E+00 0.00000E+00 0.00000E+00-1.00000E-03 0.00000E+00 0.00000E+00
 -1       138 0.00000E+00 0.00000E+00 0.00000E+00-1.00000E-03 0.00000E+00 0.00000E+00
 -1       136 0.00000E+00 0.00000E+00 0.00000E+00-1.00000E-03 0.00000E+00 0.00000E+00
 -1       133 0.00000E+00 0.00000E+00 0.00000E+00-1.00000E-03 0.00000E+00 0.00000E+00
 -1       131 0.00000E+00 0.00000E+00 0.00000E+00-1.00000E-03 0.00000E+00 0.00000E+00
 -1       128 0.00000E+00 0.00000E+00 0.00000E+00-1.00000E-03 0.00000E+00 0.00000E+00
 -1       126 0.00000E+00 0.00000E+00 0.00000E+00-1.00000E-03 0.00000E+00 0.00000E+00
 -1       124 0.00000E+00 0.00000E+00 0.00000E+00-9.99998E-04 0.00000E+00 0.00000E+00
 -1       120 0.00000E+00 0.00000E+00 0.00000E+00-9.99989E-04 0.00000E+00 0.00000E+00
 -1       117-1.72945E-21 0.00000E+00 0.00000E+00 8.64727E-16 0.00000E+00 0.00000E+00
 -1       116-8.41819E-09 0.00000E+00 0.00000E+00 7.46108E-03 0.00000E+00 0.00000E+00
 -1       112-6.28138E-08 0.00000E+00 0.00000E+00 6.18147E-02 0.00000E+00 0.00000E+00
 -1       109 0.00000E+00 0.00000E+00 0.00000E+00-8.88181E-10 0.00000E+00 0.00000E+00
 -1       108-1.26816E-07 0.00000E+00 0.00000E+00 1.25816E-01 0.00000E+00 0.00000E+00
 -1       105 0.00000E+00 0.00000E+00 0.00000E+00-8.88168E-10 0.00000E+00 0.00000E+00
 -1        84 0.00000E+00 0.00000E+00 0.00000E+00-1.00000E-03 0.00000E+00 0.00000E+00
 -1        81-3.67567E-08 0.00000E+00 0.00000E+00 3.57591E-02 0.00000E+00 0.00000E+00
 -1        79 0.00000E+00 0.00000E+00 0.00000E+00-1.00000E-03 0.00000E+00 0.00000E+00
 -1        76-4.08491E-07 0.00000E+00 0.00000E+00 4.07491E-01 0.00000E+00 0.00000E+00
 -1        74 0.00000E+00 0.00000E+00 0.00000E+00-1.00000E-03 0.00000E+00 0.00000E+00
 -1        72 0.00000E+00 0.00000E+00 0.00000E+00-1.00000E-03 0.00000E+00 0.00000E+00
 -1        69 0.00000E+00 0.00000E+00 0.00000E+00-1.00000E-03 0.00000E+00 0.00000E+00
 -1        67 0.00000E+00 0.00000E+00 0.00000E+00-1.00000E-03 0.00000E+00 0.00000E+00
 -1        64 0.00000E+00 0.00000E+00 0.00000E+00-1.00000E-03 0.00000E+00 0.00000E+00
 -1        62 0.00000E+00 0.00000E+00 0.00000E+00-1.00000E-03 0.00000E+00 0.00000E+00
 -1        60-5.91631E-09 0.00000E+00 0.00000E+00 4.99703E-03 0.00000E+00 0.00000E+00
 -1        56 0.00000E+00 0.00000E+00 0.00000E+00-1.00000E-03 0.00000E+00 0.00000E+00
 -1        53-1.46394E-21 0.00000E+00 0.00000E+00 7.31970E-16 0.00000E+00 0.00000E+00
 -1        52-2.39796E-08 0.00000E+00 0.00000E+00 2.29853E-02 0.00000E+00 0.00000E+00
 -1        48 0.00000E+00 0.00000E+00 0.00000E+00-1.00000E-03 0.00000E+00 0.00000E+00
 -1        45 0.00000E+00 0.00000E+00 0.00000E+00-2.64471E-15 0.00000E+00 0.00000E+00
 -1        44 0.00000E+00 0.00000E+00 0.00000E+00-1.00000E-03 0.00000E+00 0.00000E+00
 -1        41-1.86859E-20 0.00000E+00 0.00000E+00 9.34295E-15 0.00000E+00 0.00000E+00
 -1        20 0.00000E+00 0.00000E+00 0.00000E+00-1.00000E-03 0.00000E+00 0.00000E+00
 -1        16-7.32548E-09 0.00000E+00 0.00000E+00 6.38080E-03 0.00000E+00 0.00000E+00
 -1        13-1.79511E-21 0.00000E+00 0.00000E+00 8.97555E-16 0.00000E+00 0.00000E+00
 -1        12 0.00000E+00 0.00000E+00 0.00000E+00-1.00000E-03 0.00000E+00 0.00000E+00
 -1         8-6.26875E-07 0.00000E+00 0.00000E+00 6.25875E-01 0.00000E+00 0.00000E+00
 -1         5 0.00000E+00 0.00000E+00 0.00000E+00-1.46042E-15 0.00000E+00 0.00000E+00
 -1         4-3.70477E-07 0.00000E+00 0.00000E+00 3.69477E-01 0.00000E+00 0.00000E+00
 -1         1 0.00000E+00 0.00000E+00 0.00000E+00-4.44081E-10 0.00000E+00 0.00000E+00
 -3
    1PSTEP                         4          87           1          
  100CL  102 1.000000000         360                     0    2           1
 -4  DISP        4    1
 -5  D1          1    2    1    0
 -5  D2          1    2    2    0
 -5  D3          1    2    3    0
 -5  ALL         1    2    0    0    1ALL
 -1         1 0.00000E+00-5.08175E-04 1.00000E+01
 -1         2 0.00000E+00 4.49367E-04 1.00000E+01
 -1         3-2.64995E-02 3.14078E-03 9.73923E+00
 -1         4 2.47388E-02-3.12377E-03 9.73889E+00
 -1         5 0.00000E+00 0.00000E+00 1.00000E+01
 -1         6 0.00000E+00 0.00000E+00 1.00000E+01
 -1         7-2.68978E-02 0.00000E+00 9.72609E+00
 -1         8 2.49082E-02 0.00000E+00 9.72571E+00
 -1         9 0.00000E+00-3.04160E-05 1.00000E+01
 -1        10-1.33058E-02 1.93062E-03 9.93453E+00
 -1        11-8.80188E-04 5.97352E-06 9.73937E+00
 -1        12 1.30587E-02-1.91084E-03 9.93445E+00
 -1        13 0.00000E+00-4.03497E-05 1.00000E+01
 -1        14 0.00000E+00 5.42384E-06 1.00000E+01
 -1        15-2.68731E-02 1.65326E-03 9.72927E+00
 -1        16 2.49428E-02-1.62968E-03 9.72897E+00
 -1        17 0.00000E+00 0.00000E+00 1.00000E+01
 -1        18-1.40135E-02 0.00000E+00 9.92733E+00
 -1        19-9.96294E-04 0.00000E+00 9.72621E+00
 -1        20 1.36916E-02 0.00000E+00 9.92725E+00
 -1        41 0.00000E+00-4.37857E-04 1.00000E+01
 -1        42 0.00000E+00 4.21756E-04 1.00000E+01
 -1        43-1.75397E-02 3.26669E-03 9.89497E+00
 -1        44 1.71192E-02-3.29320E-03 9.89482E+00
 -1        45 0.00000E+00 0.00000E+00 1.00000E+01
 -1        46 0.00000E+00 0.00000E+00 1.00000E+01
 -1        47-1.79862E-02 0.00000E+00 9.88254E+00
 -1        48 1.73760E-02 0.00000E+00 9.88240E+00
 -1        49 0.00000E+00-8.56190E-06 1.00000E+01
 -1        50-7.92996E-03 1.89519E-03 9.97693E+00
 -1        51-2.08476E-04-1.47885E-05 9.89522E+00
 -1        52 7.89420E-03-1.88400E-03 9.97690E+00
 -1        53 0.00000E+00-5.99347E-05 1.00000E+01
 -1        54 0.00000E+00 4.89643E-05 1.00000E+01
 -1        55-1.78882E-02 1.53407E-03 9.88522E+00
 -1        56 1.73329E-02-1.53660E-03 9.88509E+00
 -1        57 0.00000E+00 0.00000E+00 1.00000E+01
 -1        58-8.89315E-03 0.00000E+00 9.97030E+00
 -1        59-3.03959E-04 0.00000E+00 9.88281E+00
 -1        60 8.80363E-03 0.00000E+00 9.97027E+00
 -1        61-4.30548E-02 3.01692E-03 9.50658E+00
 -1        62 3.80156E-02-3.02716E-03 9.50590E+00
 -1        63-4.29094E-02 0.00000E+00 9.49475E+00
 -1        64 3.75082E-02 0.00000E+00 9.49408E+00
 -1        65-3.00740E-02 3.43303E-03 9.73953E+00
 -1        66-2.51623E-03-6.96682E-06 9.50642E+00
 -1        67 2.82483E-02-3.40045E-03 9.73916E+00
 -1        68-4.29826E-02 1.46974E-03 9.49757E+00
 -1        69 3.76523E-02-1.46821E-03 9.49691E+00
 -1        70-3.01776E-02 0.00000E+00 9.72633E+00
 -1        71-2.69607E-03 0.00000E+00 9.49460E+00
 -1        72 2.80457E-02 0.00000E+00 9.72597E+00
 -1        73-5.79652E-02 2.27999E-03 8.89746E+00
 -1        74 4.17573E-02-2.20063E-03 8.89646E+00
 -1        75-5.83309E-02 0.00000E+00 8.88731E+00
 -1        76 4.18243E-02 0.00000E+00 8.88624E+00
 -1        77-5.08077E-02 2.38737E-03 9.21745E+00
 -1        78-8.10373E-03 4.19231E-05 8.89699E+00
 -1        79 4.07548E-02-2.39921E-03 9.21661E+00
 -1        80-5.81239E-02 1.29599E-03 8.89041E+00
 -1        81 4.17048E-02-1.24646E-03 8.88936E+00
 -1        82-5.08540E-02 0.00000E+00 9.20757E+00
 -1        83-8.25705E-03 0.00000E+00 8.88680E+00
 -1        84 4.04644E-02 0.00000E+00 9.20674E+00
 -1       105 0.00000E+00-4.39735E-04 1.00000E+01
 -1       106 0.00000E+00 4.16501E-04 1.00000E+01
 -1       107-1.89528E-02 3.19239E-03 9.86887E+00
 -1       108 1.83753E-02-3.22802E-03 9.86871E+00
 -1       109 0.00000E+00 0.00000E+00 1.00000E+01
 -1       110 0.00000E+00 0.00000E+00 1.00000E+01
 -1       111-1.94010E-02 0.00000E+00 9.85630E+00
 -1       112 1.86140E-02 0.00000E+00 9.85615E+00
 -1       113 0.00000E+00-1.23372E-05 1.00000E+01
 -1       114-8.80521E-03 1.87209E-03 9.97010E+00
 -1       115-2.87691E-04-1.88471E-05 9.86907E+00
 -1       116 8.75113E-03-1.85543E-03 9.97006E+00
 -1       117 0.00000E+00-5.23735E-05 1.00000E+01
 -1       118 0.00000E+00 3.68989E-05 1.00000E+01
 -1       119-1.93125E-02 1.56564E-03 9.85921E+00
 -1       120 1.85862E-02-1.57774E-03 9.85906E+00
 -1       121 0.00000E+00 0.00000E+00 1.00000E+01
 -1       122-9.68186E-03 0.00000E+00 9.96334E+00
 -1       123-3.92515E-04 0.00000E+00 9.85651E+00
 -1       124 9.56563E-03 0.00000E+00 9.96331E+00
 -1       125-4.58687E-02 3.70596E-03 9.40976E+00
 -1       126 3.95200E-02-3.74940E-03 9.40901E+00
 -1       127-4.60400E-02 0.00000E+00 9.39505E+00
 -1       128 3.91905E-02 0.00000E+00 9.39432E+00
 -1       129-3.18100E-02 3.62921E-03 9.68412E+00
 -1       130-3.16917E-03-2.22538E-05 9.40964E+00
 -1       131 2.94371E-02-3.62252E-03 9.68373E+00
 -1       132-4.59802E-02 1.83088E-03 9.39857E+00
 -1       133 3.92489E-02-1.83870E-03 9.39783E+00
 -1       134-3.21113E-02 0.00000E+00 9.66974E+00
 -1       135-3.41999E-03 0.00000E+00 9.39494E+00
 -1       136 2.93862E-02 0.00000E+00 9.66937E+00
 -1       137-7.90967E-02 2.69691E-03 8.58639E+00
 -1       138 5.45042E-02-2.70629E-03 8.58459E+00
 -1       139-7.90355E-02 0.00000E+00 8.57575E+00
 -1       140 5.38942E-02 0.00000E+00 8.57397E+00
 -1       141-6.16543E-02 3.36290E-03 9.04347E+00
 -1       142-1.22915E-02-5.04016E-06 8.58568E+00
 -1       143 4.81856E-02-3.33937E-03 9.04226E+00
 -1       144-7.91113E-02 1.31553E-03 8.57840E+00
 -1       145 5.40963E-02-1.31400E-03 8.57661E+00
 -1       146-6.16939E-02 0.00000E+00 9.03032E+00
 -1       147-1.25650E-02 0.00000E+00 8.57506E+00
 -1       148 4.76543E-02 0.00000E+00 9.02913E+00
 -1       149-1.05241E-01 2.17825E-03 7.50021E+00
 -1       150 4.91323E-02-2.11310E-03 7.49782E+00
 -1       151-1.05747E-01 0.00000E+00 7.49063E+00
 -1       152 4.91316E-02 0.00000E+00 7.48816E+00
 -1       153-9.21295E-02 2.15183E-03 8.06268E+00
 -1       154-2.80530E-02 3.36207E-05 7.49905E+00
 -1       155 5.29119E-02-2.16151E-03 8.06057E+00
 -1       156-1.05506E-01 1.21559E-03 7.49353E+00
 -1       157 4.90393E-02-1.17411E-03 7.49110E+00
 -1       158-9.23127E-02 0.00000E+00 8.05383E+00
 -1       159-2.83094E-02 0.00000E+00 7.48943E+00
 -1       160 5.25987E-02 0.00000E+00 8.05174E+00
 -1       181 0.00000E+00-4.27523E-04 1.00000E+01
 -1       182 0.00000E+00 3.97703E-04 1.00000E+01
 -1       183-2.01156E-02 3.15820E-03 9.85080E+00
 -1       184 1.94068E-02-3.19761E-03 9.85063E+00
 -1       185 0.00000E+00 0.00000E+00 1.00000E+01
 -1       186 0.00000E+00 0.00000E+00 1.00000E+01
 -1       187-2.04980E-02 0.00000E+00 9.83835E+00
 -1       188 1.95726E-02 0.00000E+00 9.83817E+00
 -1       189 0.00000E+00-1.56760E-05 1.00000E+01
 -1       190-9.39400E-03 1.87945E-03 9.96562E+00
 -1       191-3.53053E-04-2.06658E-05 9.85099E+00
 -1       192 9.32318E-03-1.86056E-03 9.96557E+00
 -1       193 0.00000E+00-5.60843E-05 1.00000E+01
 -1       194 0.00000E+00 3.68515E-05 1.00000E+01
 -1       195-2.04259E-02 1.54995E-03 9.84123E+00
 -1       196 1.95626E-02-1.56351E-03 9.84106E+00
 -1       197 0.00000E+00 0.00000E+00 1.00000E+01
 -1       198-1.02202E-02 0.00000E+00 9.95877E+00
 -1       199-4.61619E-04 0.00000E+00 9.83854E+00
 -1       200 1.00854E-02 0.00000E+00 9.95873E+00
 -1       201-4.74119E-02 3.62876E-03 9.34285E+00
 -1       202 4.00859E-02-3.67328E-03 9.34206E+00
 -1       203-4.77145E-02 0.00000E+00 9.32823E+00
 -1       204 3.98744E-02 0.00000E+00 9.32746E+00
 -1       205-3.31721E-02 3.51075E-03 9.64462E+00
 -1       206-3.65904E-03-2.29004E-05 9.34267E+00
 -1       207 3.03598E-02-3.50224E-03 9.64421E+00
 -1       208-4.76188E-02 1.82694E-03 9.33187E+00
 -1       209 3.99061E-02-1.83824E-03 9.33109E+00
 -1       210-3.34613E-02 0.00000E+00 9.63064E+00
 -1       211-3.91590E-03 0.00000E+00 9.32805E+00
 -1       212 3.02918E-02 0.00000E+00 9.63024E+00
 -1       213-8.26055E-02 3.65799E-03 8.44436E+00
 -1       214 5.49019E-02-3.70665E-03 8.44244E+00
 -1       215-8.28996E-02 0.00000E+00 8.42976E+00
 -1       216 5.43967E-02 0.00000E+00 8.42786E+00
 -1       217-6.38207E-02 3.73647E-03 8.94355E+00
 -1       218-1.38444E-02-2.50272E-05 8.44366E+00
 -1       219 4.85543E-02-3.72804E-03 8.94229E+00
 -1       220-8.28394E-02 1.81198E-03 8.43329E+00
 -1       221 5.45291E-02-1.82417E-03 8.43139E+00
 -1       222-6.41605E-02 0.00000E+00 8.92866E+00
 -1       223-1.42445E-02 0.00000E+00 8.42907E+00
 -1       224 4.82254E-02 0.00000E+00 8.92740E+00
 -1       225-1.28882E-01 2.63403E-03 7.14269E+00
 -1       226 5.85751E-02-2.64365E-03 7.13916E+00
 -1       227-1.28953E-01 0.00000E+00 7.13234E+00
 -1       228 5.78859E-02 0.00000E+00 7.12883E+00
 -1       229-1.04262E-01 3.29118E-03 7.84359E+00
 -1       230-3.51468E-02-5.12242E-06 7.14111E+00
 -1       231 5.85264E-02-3.26830E-03 7.84094E+00
 -1       232-1.28986E-01 1.28282E-03 7.13490E+00
 -1       233 5.80972E-02-1.28087E-03 7.13139E+00
 -1       234-1.04438E-01 0.00000E+00 7.83071E+00
 -1       235-3.55259E-02 0.00000E+00 7.13078E+00
 -1       236 5.78712E-02 0.00000E+00 7.82807E+00
 -1       237-1.71834E-01 2.11836E-03 5.54793E+00
 -1       238 3.78486E-02-2.06061E-03 5.54352E+00
 -1       239-1.72404E-01 0.00000E+00 5.53866E+00
 -1       240 3.77158E-02 0.00000E+00 5.53418E+00
 -1       241-1.49971E-01 2.10317E-03 6.36746E+00
 -1       242-6.69907E-02 2.97488E-05 5.54577E+00
 -1       243 4.96032E-02-2.11216E-03 6.36348E+00
 -1       244-1.72157E-01 1.17484E-03 5.54145E+00
 -1       245 3.76758E-02-1.13803E-03 5.53701E+00
 -1       246-1.50246E-01 0.00000E+00 6.35885E+00
 -1       247-6.73451E-02 0.00000E+00 5.53645E+00
 -1       248 4.92045E-02 0.00000E+00 6.35488E+00
 -1       269 0.00000E+00-4.21151E-04 1.00000E+01
 -1       270 0.00000E+00 3.85200E-04 1.00000E+01
 -1       271-2.09624E-02 3.16015E-03 9.83780E+00
 -1       272 2.01495E-02-3.20226E-03 9.83761E+00
 -1       273 0.00000E+00 0.00000E+00 1.00000E+01
 -1       274 0.00000E+00 0.00000E+00 1.00000E+01
 -1       275-2.12969E-02 0.00000E+00 9.82531E+00
 -1       276 2.02629E-02 0.00000E+00 9.82512E+00
 -1       277 0.00000E+00-1.85077E-05 1.00000E+01
 -1       278-9.80490E-03 1.90589E-03 9.96247E+00
 -1       279-4.05225E-04-2.19485E-05 9.83797E+00
 -1       280 9.72050E-03-1.88779E-03 9.96242E+00
 -1       281 0.00000E+00-5.88475E-05 1.00000E+01
 -1       282 0.00000E+00 3.85916E-05 1.00000E+01
 -1       283-2.12455E-02 1.55496E-03 9.82819E+00
 -1       284 2.02741E-02-1.56990E-03 9.82801E+00
 -1       285 0.00000E+00 0.00000E+00 1.00000E+01
 -1       286-1.06082E-02 0.00000E+00 9.95545E+00
 -1       287-5.15907E-04 0.00000E+00 9.82549E+00
 -1       288 1.04575E-02 0.00000E+00 9.95542E+00
 -1       289-4.90074E-02 3.49829E-03 9.29196E+00
 -1       290 4.08551E-02-3.54375E-03 9.29113E+00
 -1       291-4.92857E-02 0.00000E+00 9.27787E+00
 -1       292 4.06255E-02 0.00000E+00 9.27705E+00
 -1       293-3.43485E-02 3.44093E-03 9.61546E+00
 -1       294-4.07186E-03-2.33134E-05 9.29176E+00
 -1       295 3.11844E-02-3.43027E-03 9.61503E+00
 -1       296-4.91904E-02 1.75743E-03 9.28139E+00
 -1       297 4.06556E-02-1.76958E-03 9.28057E+00
 -1       298-3.46058E-02 0.00000E+00 9.60177E+00
 -1       299-4.32576E-03 0.00000E+00 9.27767E+00
 -1       300 3.10815E-02 0.00000E+00 9.60134E+00
 -1       301-8.46902E-02 3.59984E-03 8.33851E+00
 -1       302 5.45155E-02-3.64886E-03 8.33655E+00
 -1       303-8.51172E-02 0.00000E+00 8.32399E+00
 -1       304 5.41333E-02 0.00000E+00 8.32204E+00
 -1       305-6.56460E-02 3.58553E-03 8.86666E+00
 -1       306-1.50814E-02-2.52376E-05 8.33775E+00
 -1       307 4.88384E-02-3.57606E-03 8.86535E+00
 -1       308-8.50199E-02 1.80849E-03 8.32762E+00
 -1       309 5.42396E-02-1.82284E-03 8.32566E+00
 -1       310-6.59977E-02 0.00000E+00 8.85232E+00
 -1       311-1.54860E-02 0.00000E+00 8.32324E+00
 -1       312 4.85318E-02 0.00000E+00 8.85102E+00
 -1       313-1.33292E-01 3.62484E-03 6.96479E+00
 -1       314 5.75597E-02-3.67678E-03 6.96112E+00
 -1       315-1.33751E-01 0.00000E+00 6.95031E+00
 -1       316 5.69177E-02 0.00000E+00 6.94666E+00
 -1       317-1.07173E-01 3.69405E-03 7.70534E+00
 -1       318-3.78559E-02-2.66459E-05 6.96321E+00
 -1       319 5.77679E-02-3.68256E-03 7.70262E+00
 -1       320-1.33642E-01 1.79870E-03 6.95382E+00
 -1       321 5.70734E-02-1.81299E-03 6.95016E+00
 -1       322-1.07663E-01 0.00000E+00 7.69063E+00
 -1       323-3.84072E-02 0.00000E+00 6.94874E+00
 -1       324 5.72885E-02 0.00000E+00 7.68791E+00
 -1       325-1.97943E-01 2.58504E-03 5.16100E+00
 -1       326 4.37833E-02-2.59534E-03 5.15513E+00
 -1       327-1.98131E-01 0.00000E+00 5.15084E+00
 -1       328 4.30017E-02 0.00000E+00 5.14500E+00
 -1       329-1.63450E-01 3.25424E-03 6.11600E+00
 -1       330-7.70715E-02-5.48272E-06 5.15824E+00
 -1       331 5.31169E-02-3.23196E-03 6.11130E+00
 -1       332-1.98134E-01 1.26158E-03 5.15335E+00
 -1       333 4.32354E-02-1.25968E-03 5.14750E+00
 -1       334-1.63763E-01 0.00000E+00 6.10323E+00
 -1       335-7.75554E-02 0.00000E+00 5.14811E+00
 -1       336 5.23312E-02 0.00000E+00 6.09856E+00
 -1       337-2.63486E-01 2.04119E-03 3.04342E+00
 -1       338 1.53687E-03-1.98799E-03 3.03638E+00
 -1       339-2.64081E-01 0.00000E+00 3.03462E+00
 -1       340 1.26329E-03 0.00000E+00 3.02752E+00
 -1       341-2.29963E-01 2.06411E-03 4.12642E+00
 -1       342-1.30972E-01 2.75344E-05 3.03994E+00
 -1       343 2.43820E-02-2.07237E-03 4.11995E+00
 -1       344-2.63841E-01 1.11605E-03 3.03723E+00
 -1       345 1.27698E-03-1.08328E-03 3.03016E+00
 -1       346-2.30313E-01 0.00000E+00 4.11800E+00
 -1       347-1.31409E-01 0.00000E+00 3.03112E+00
 -1       348 2.38887E-02 0.00000E+00 4.11155E+00
 -1       369 0.00000E+00-4.26724E-04 1.00000E+01
 -1       370 0.00000E+00 3.75196E-04 1.00000E+01
 -1       371-2.15643E-02 3.21036E-03 9.82820E+00
 -1       372 2.07307E-02-3.26501E-03 9.82800E+00
 -1       373 0.00000E+00 0.00000E+00 1.00000E+01
 -1       374 0.00000E+00 0.00000E+00 1.00000E+01
 -1       375-2.18878E-02 0.00000E+00 9.81545E+00
 -1       376 2.08267E-02 0.00000E+00 9.81526E+00
 -1       377 0.00000E+00-2.60174E-05 1.00000E+01
 -1       378-1.00833E-02 1.93149E-03 9.96015E+00
 -1       379-4.15578E-04-2.79841E-05 9.82837E+00
 -1       380 1.00174E-02-1.92389E-03 9.96011E+00
 -1       381 0.00000E+00-6.09327E-05 1.00000E+01
 -1       382 0.00000E+00 3.52835E-05 1.00000E+01
 -1       383-2.18399E-02 1.58493E-03 9.81840E+00
 -1       384 2.08424E-02-1.60523E-03 9.81821E+00
 -1       385 0.00000E+00 0.00000E+00 1.00000E+01
 -1       386-1.08846E-02 0.00000E+00 9.95300E+00
 -1       387-5.29432E-04 0.00000E+00 9.81563E+00
 -1       388 1.07501E-02 0.00000E+00 9.95296E+00
 -1       389-5.05028E-02 3.44447E-03 9.25113E+00
 -1       390 4.17501E-02-3.50048E-03 9.25025E+00
 -1       391-5.07606E-02 0.00000E+00 9.23723E+00
 -1       392 4.14945E-02 0.00000E+00 9.23636E+00
 -1       393-3.53599E-02 3.44538E-03 9.59298E+00
 -1       394-4.37207E-03-2.86474E-05 9.25089E+00
 -1       395 3.19974E-02-3.44153E-03 9.59252E+00
 -1       396-5.06747E-02 1.73115E-03 9.24070E+00
 -1       397 4.15349E-02-1.74904E-03 9.23983E+00
 -1       398-3.55954E-02 0.00000E+00 9.57924E+00
 -1       399-4.62876E-03 0.00000E+00 9.23700E+00
 -1       400 3.18620E-02 0.00000E+00 9.57879E+00
 -1       401-8.70451E-02 3.46861E-03 8.24911E+00
 -1       402 5.47046E-02-3.52599E-03 8.24708E+00
 -1       403-8.74505E-02 0.00000E+00 8.23512E+00
 -1       404 5.43161E-02 0.00000E+00 8.23309E+00
 -1       405-6.75182E-02 3.48775E-03 8.80316E+00
 -1       406-1.61641E-02-2.93109E-05 8.24832E+00
 -1       407 4.94551E-02-3.48550E-03 8.80179E+00
 -1       408-8.73530E-02 1.73849E-03 8.23862E+00
 -1       409 5.44183E-02-1.75749E-03 8.23659E+00
 -1       410-6.78501E-02 0.00000E+00 8.78921E+00
 -1       411-1.65610E-02 0.00000E+00 8.23433E+00
 -1       412 4.91335E-02 0.00000E+00 8.78785E+00
 -1       413-1.36269E-01 3.54493E-03 6.81866E+00
 -1       414 5.59781E-02-3.60445E-03 6.81494E+00
 -1       415-1.36842E-01 0.00000E+00 6.80436E+00
 -1       416 5.54495E-02 0.00000E+00 6.80064E+00
 -1       417-1.09841E-01 3.53629E-03 7.58795E+00
 -1       418-4.01373E-02-3.05329E-05 6.81702E+00
 -1       419 5.71408E-02-3.53280E-03 7.58516E+00
 -1       420-1.36698E-01 1.77986E-03 6.80794E+00
 -1       421 5.55811E-02-1.79955E-03 6.80422E+00
 -1       422-1.10331E-01 0.00000E+00 7.57382E+00
 -1       423-4.06877E-02 0.00000E+00 6.80272E+00
 -1       424 5.66850E-02 0.00000E+00 7.57103E+00
 -1       425-2.03053E-01 3.54197E-03 4.95026E+00
 -1       426 4.10147E-02-3.60409E-03 4.94428E+00
 -1       427-2.03685E-01 0.00000E+00 4.93608E+00
 -1       428 4.02649E-02 0.00000E+00 4.93011E+00
 -1       429-1.67211E-01 3.61832E-03 5.93992E+00
 -1       430-8.10070E-02-3.14106E-05 4.94751E+00
 -1       431 5.08959E-02-3.61465E-03 5.93516E+00
 -1       432-2.03537E-01 1.76240E-03 4.93951E+00
 -1       433 4.04516E-02-1.78236E-03 4.93354E+00
 -1       434-1.67838E-01 0.00000E+00 5.92549E+00
 -1       435-8.16977E-02 0.00000E+00 4.93334E+00
 -1       436 5.02637E-02 0.00000E+00 5.92074E+00
 -1       437-2.91185E-01 2.50516E-03 2.63850E+00
 -1       438 4.03488E-03-2.53028E-03 2.62976E+00
 -1       439-2.91344E-01 0.00000E+00 2.62880E+00
 -1       440 3.07473E-03 0.00000E+00 2.62009E+00
 -1       441-2.44251E-01 3.23191E-03 3.84924E+00
 -1       442-1.43565E-01-1.40116E-05 2.63430E+00
 -1       443 2.56051E-02-3.21945E-03 3.84194E+00
 -1       444-2.91364E-01 1.22264E-03 2.63103E+00
 -1       445 3.34090E-03-1.22962E-03 2.62233E+00
 -1       446-2.44705E-01 0.00000E+00 3.83649E+00
 -1       447-1.44124E-01 0.00000E+00 2.62462E+00
 -1       448 2.46888E-02 0.00000E+00 3.82923E+00
 -1       449-3.84212E-01 1.23610E-04 0.00000E+00
 -1       450-6.55595E-02-2.15274E-04-1.00702E-02
 -1       451-3.83653E-01 0.00000E+00 0.00000E+00
 -1       452-6.61651E-02 0.00000E+00-1.00727E-02
 -1       453-3.36638E-01 1.33686E-03 1.34435E+00
 -1       454-2.24879E-01-4.06682E-05-4.95365E-03
 -1       455-2.86996E-02-1.33624E-03 1.33486E+00
 -1       456-3.83854E-01 3.45653E-05 0.00000E+00
 -1       457-6.59665E-02-6.74863E-05-1.01197E-02
 -1       458-3.36472E-01 0.00000E+00 1.33907E+00
 -1       459-2.24904E-01 0.00000E+00-4.95495E-03
 -1       460-2.95347E-02 0.00000E+00 1.32966E+00
 -3
    1PSTEP                         5          87           1          
  100CL  102 1.000000000         360                     0    2           1
 -4  STRESS      6    1
 -5  SXX         1    4    1    1
 -5  SYY         1    4    2    2
 -5  SZZ         1    4    3    3
 -5  SXY         1    4    1    2
 -5  SYZ         1    4    2    3
 -5  SZX         1    4    3    1
 -1         1 1.47262E+02 4.73173E+01 5.83194E+01-4.84551E+00-1.54034E+01-1.79239E+00
 -1         2-1.43005E+02-4.60465E+01-5.67681E+01 5.21584E+00-1.55322E+01-1.80260E+00
 -1         3-8.78705E+01 1.12080E+01 2.64079E+01 6.83415E+00 6.36594E+00-1.23847E+01
 -1         4 9.07353E+01-1.18252E+01-3.07938E+01-7.28569E+00 6.06807E+00-1.47515E+01
 -1         5 1.70874E+02 7.71466E+01 7.43556E+01-1.05235E-02 2.16218E-03-2.70562E+01
 -1         6-1.67486E+02-7.67978E+01-7.33346E+01-1.04446E-02-1.74062E-03-2.70449E+01
 -1         7-7.48054E+01 2.39742E+01 3.32380E+01-1.21647E+00-1.67076E+00-2.04879E+01
 -1         8 7.50727E+01-2.57015E+01-4.18602E+01 1.23603E+00-5.98067E-01-2.28279E+01
 -1         9 1.98981E+00 6.29001E-01 7.81265E-01 1.93639E-01-1.54678E+01-1.29833E+00
 -1        10-1.17732E+02-1.66317E+01-1.49276E+01 8.28238E+00-5.76628E+00 4.90871E+00
 -1        11 1.29084E+00-3.79902E-01-2.26478E+00-2.14081E-01 6.20107E+00-1.30681E+01
 -1        12 1.15294E+02 1.52724E+01 1.26065E+01-8.07575E+00-5.93769E+00 3.82258E+00
 -1        13 1.59721E+02 6.25126E+01 6.66251E+01-2.86798E+00-7.05459E-01-1.98185E+01
 -1        14-1.56252E+02-6.18530E+01-6.54759E+01 3.10545E+00-7.73211E-01-1.98871E+01
 -1        15-8.07987E+01 1.85825E+01 3.27108E+01 3.27814E+00-9.26452E-02-1.71503E+01
 -1        16 8.51033E+01-1.70619E+01-3.27338E+01-3.49837E+00 3.06740E-01-1.94238E+01
 -1        17 1.52936E+00 1.77585E-01 5.23834E-01-8.02092E-03 2.80565E-05-2.65452E+01
 -1        18-1.22561E+02-2.48669E+01-1.82388E+01 1.45378E+00 1.71163E+00 5.30879E+00
 -1        19-3.29088E-04-9.42290E-01-4.39111E+00 1.65774E-02-1.14971E+00-2.11516E+01
 -1        20 1.20143E+02 2.40035E+01 1.66414E+01-1.58780E+00 2.15091E+00 4.22912E+00
 -1        41 1.16323E+02 3.74217E+01 4.61033E+01-7.11592E+00-1.38598E+01 3.09678E+01
 -1        42-1.13569E+02-3.63716E+01-4.50010E+01 7.36934E+00-1.39120E+01 3.08746E+01
 -1        43-1.32771E+02 3.24840E+00 1.49060E+01 7.39740E+00 1.19632E+00 7.79103E+00
 -1        44 1.36264E+02-2.92859E+00-1.58134E+01-7.36193E+00 1.11359E+00 5.77793E+00
 -1        45 1.52613E+02 6.76178E+01 6.60147E+01-1.70918E-03 7.34241E-04-3.17866E+00
 -1        46-1.50391E+02-6.71323E+01-6.53108E+01-1.69233E-03-4.85216E-04-3.20002E+00
 -1        47-1.21946E+02-6.32696E-01 1.95271E+01-2.20221E-01-6.94818E+00 1.60427E+00
 -1        48 1.23920E+02 1.07516E+00-2.03421E+01 3.40412E-01-6.60803E+00-3.52547E-01
 -1        49 1.30724E+00 5.30578E-01 5.65697E-01 1.36455E-01-1.38860E+01 3.17117E+01
 -1        50-1.16972E+02-1.33223E+01-1.21540E+01 1.15869E+01-5.81619E+00 1.33677E+00
 -1        51 1.52933E+00 1.03276E-01-5.09760E-01 2.91190E-02 1.09980E+00 7.00940E+00
 -1        52 1.16032E+02 1.26322E+01 1.07419E+01-1.14873E+01-5.82035E+00 5.36352E-01
 -1        53 1.35177E+02 5.28272E+01 5.63634E+01-3.67591E+00-1.74354E+00 5.36486E+00
 -1        54-1.33055E+02-5.22096E+01-5.56168E+01 3.83710E+00-1.77469E+00 5.28191E+00
 -1        55-1.26783E+02 1.79565E+00 1.84373E+01 3.75625E+00 5.04644E-01 4.34991E+00
 -1        56 1.30204E+02-6.37827E-01-1.70575E+01-3.63002E+00 6.32688E-01 2.39059E+00
 -1        57 9.95183E-01 2.57510E-01 3.74211E-01 1.36904E-03-5.88994E-05-2.36585E+00
 -1        58-1.25882E+02-2.87651E+01-1.79334E+01 2.87583E+00-1.79608E+00 1.48276E+00
 -1        59 8.05958E-01 1.75473E-01-4.61065E-01 6.31282E-02-6.83297E+00 8.53221E-01
 -1        60 1.24615E+02 2.84041E+01 1.72913E+01-2.98654E+00-1.64241E+00 6.87147E-01
 -1        61-1.05992E+02 1.38455E+00-8.26287E-01-6.04347E+00 1.15703E-01-1.08518E+01
 -1        62 1.07442E+02-1.20673E+00 4.27150E-01 5.75927E+00-1.98247E-01-1.43165E+01
 -1        63-1.07821E+02-3.08084E+00-2.53115E+00-5.96879E-01-2.25823E+00-8.04843E+00
 -1        64 1.07956E+02 2.86070E+00 1.27228E+00 2.76024E-01-1.93277E+00-1.14786E+01
 -1        65-1.50023E+02-7.47682E+00-5.19497E+00-4.58587E-01-3.62737E+00 2.05374E+00
 -1        66 5.79571E-01 4.84973E-02-2.11142E-01-1.47900E-01-4.98184E-02-1.29367E+01
 -1        67 1.49103E+02 6.82227E+00 3.05287E+00 3.75409E-01-3.76266E+00-1.28105E+00
 -1        68-1.05892E+02-1.76222E-01-3.18122E-01-2.98150E+00 2.81571E-01-9.32006E+00
 -1        69 1.07354E+02 9.17214E-01 1.62926E+00 2.73683E+00 2.97389E-01-1.27971E+01
 -1        70-1.47953E+02-1.28390E+01-5.16970E+00-5.95043E-01-2.84020E-01 1.90016E+00
 -1        71-8.81420E-02-1.52831E-01-6.44687E-01-1.65130E-01-2.10390E+00-1.01424E+01
 -1        72 1.45256E+02 1.15973E+01 1.70901E+00 6.23667E-01 8.13122E-02-1.41167E+00
 -1        73-4.62874E+01 1.45659E+00-7.08786E+00 3.94582E-01 6.45248E-01-1.42281E+01
 -1        74 4.59894E+01-4.67979E-01 8.74286E+00-4.02734E-01 8.17630E-01-1.58062E+01
 -1        75-4.72646E+01 1.39381E+01-7.90381E+00 1.86392E+00 9.07920E+00-1.41031E+01
 -1        76 4.57513E+01-1.46481E+01 2.91700E+00-1.66262E+00 9.22562E+00-1.58671E+01
 -1        77-5.53765E+01 7.21632E+00 3.76809E+00-3.20217E+00 3.61971E+00 3.78804E+00
 -1        78-1.70896E-01 5.23455E-01 8.55076E-01 2.23703E-02 7.64161E-01-1.53828E+01
 -1        79 5.52694E+01-7.64368E+00-4.14390E+00 3.34159E+00 3.35664E+00 1.71092E+00
 -1        80-4.70153E+01 7.40100E+00-8.20472E+00 1.50625E+00-2.70119E-02-1.32311E+01
 -1        81 4.56251E+01-7.85563E+00 5.12303E+00-1.59142E+00 1.52106E-01-1.49793E+01
 -1        82-5.73449E+01 1.15839E+01 4.19979E+00 3.79090E-01-1.04467E+00 3.85002E+00
 -1        83-8.27417E-01-3.51243E-01-2.48461E+00 1.17061E-01 9.18530E+00-1.53751E+01
 -1        84 5.78246E+01-1.10640E+01-3.66791E+00-4.06430E-01-9.81055E-01 1.70250E+00
 -1       105 1.18831E+02 3.80803E+01 4.70470E+01-6.20767E+00-1.37899E+01 2.48506E+01
 -1       106-1.15771E+02-3.69429E+01-4.58395E+01 6.54500E+00-1.38727E+01 2.47961E+01
 -1       107-1.19455E+02 2.22997E+00 1.04077E+01 7.24698E+00 1.44442E+00 7.24931E+00
 -1       108 1.23462E+02-1.37062E+00-1.04308E+01-7.27026E+00 1.53394E+00 5.48610E+00
 -1       109 1.49620E+02 6.67089E+01 6.48479E+01-3.75206E-03 1.02445E-03-6.24972E+00
 -1       110-1.47221E+02-6.62662E+01-6.40960E+01-3.73279E-03-7.72415E-04-6.31059E+00
 -1       111-1.10580E+02 3.48680E+00 1.48442E+01-3.80312E-01-3.74641E+00 1.36540E+00
 -1       112 1.12981E+02-3.07716E+00-1.52312E+01 5.15363E-01-3.62331E+00-4.09469E-01
 -1       113 1.44707E+00 5.67977E-01 6.12203E-01 1.79084E-01-1.38314E+01 2.54173E+01
 -1       114-1.14084E+02-1.51146E+01-1.60585E+01 1.03916E+01-5.75004E+00 1.38038E+00
 -1       115 1.83806E+00 3.89755E-01-5.21831E-02-1.75543E-03 1.45846E+00 6.64110E+00
 -1       116 1.13092E+02 1.46047E+01 1.46909E+01-1.02566E+01-5.69608E+00 6.26394E-01
 -1       117 1.34901E+02 5.26870E+01 5.62388E+01-3.38349E+00-1.41934E+00 2.03799E+00
 -1       118-1.32532E+02-5.20462E+01-5.54105E+01 3.57866E+00-1.46481E+00 1.98703E+00
 -1       119-1.14849E+02 2.99070E+00 1.30482E+01 3.59708E+00-7.27089E-02 3.84640E+00
 -1       120 1.18086E+02-2.22167E+00-1.25393E+01-3.51598E+00 3.55799E-02 2.07803E+00
 -1       121 1.08563E+00 2.31755E-01 3.93761E-01-9.87016E-04-8.62735E-06-5.66986E+00
 -1       122-1.21255E+02-2.71322E+01-2.04685E+01 2.44461E+00 4.35951E-02 1.64482E+00
 -1       123 1.05305E+00 1.67819E-01-2.35346E-01 6.82027E-02-3.71546E+00 7.48799E-01
 -1       124 1.20193E+02 2.70088E+01 2.06177E+01-2.55036E+00 5.15946E-02 8.60503E-01
 -1       125-1.34564E+02 1.08488E-01 1.46500E+00-1.56052E+00 9.43460E-01 2.27063E+00
 -1       126 1.39556E+02 8.86939E-01-9.76052E-01 1.65199E+00 8.62781E-01-2.56105E+00
 -1       127-1.33940E+02-1.94533E+00 9.62100E-01 2.74164E-01-2.61949E+00 2.90159E+00
 -1       128 1.37374E+02 3.25289E+00-2.12841E-01-3.87673E-01-2.62026E+00-1.84665E+00
 -1       129-1.33109E+02 8.62745E-01 4.67302E+00 2.18796E+00-9.05482E-01 1.56226E+00
 -1       130 2.30086E+00 4.64227E-01 2.17516E-01 4.60589E-02 9.12483E-01-2.33563E-01
 -1       131 1.32489E+02-1.13303E+00-5.02196E+00-2.23544E+00-8.87328E-01-1.80572E+00
 -1       132-1.33976E+02-8.46855E-01 1.38423E+00-6.27665E-01 1.00894E-01 2.03630E+00
 -1       133 1.37667E+02 1.68172E+00-8.83478E-01 6.53277E-01 5.91311E-02-2.75320E+00
 -1       134-1.31866E+02-1.05286E+00 5.15105E+00-8.62857E-02-2.03073E-01 9.87688E-01
 -1       135 1.53213E+00 6.24786E-01 3.50846E-01-5.49432E-02-2.61052E+00 4.38848E-01
 -1       136 1.29878E+02 7.75966E-01-5.43412E+00 8.67467E-02-1.44447E-01-2.29810E+00
 -1       137-9.87131E+01 1.08318E+00 3.00181E+00-5.42320E+00-1.01373E+00-8.66631E+00
 -1       138 1.00448E+02-3.34890E-01-1.67746E+00 5.10100E+00-1.25368E+00-1.41083E+01
 -1       139-1.01844E+02-3.17537E+00 1.56384E+00-9.78503E-01-2.70753E-01-6.46311E+00
 -1       140 1.02311E+02 3.37578E+00-1.72573E+00 8.00721E-01-2.75052E-01-1.19460E+01
 -1       141-1.39337E+02-7.20235E+00-6.70946E+00-3.81274E+00-2.54378E+00 2.70287E+00
 -1       142 7.38842E-01 3.55084E-01 6.57794E-01-1.68342E-01-1.16356E+00-1.16178E+01
 -1       143 1.38849E+02 7.14257E+00 6.61227E+00 3.70980E+00-2.67353E+00-3.10730E+00
 -1       144-1.00361E+02-1.13220E+00 2.18247E+00-3.00498E+00 5.17030E-01-6.40331E+00
 -1       145 1.01295E+02 1.43414E+00-1.80249E+00 2.82148E+00 4.03697E-01-1.18606E+01
 -1       146-1.39547E+02-9.98783E+00-7.45166E+00-4.13988E-01 4.63310E-01 3.52788E+00
 -1       147 9.39160E-02 7.91686E-02-8.92353E-02-9.30500E-02-3.02838E-01-9.44089E+00
 -1       148 1.37428E+02 9.56516E+00 6.21474E+00 4.55845E-01 4.78696E-01-2.29313E+00
 -1       149-4.93033E+01 4.83686E-01-7.86199E+00 1.44619E+00 7.15030E-03-1.19329E+01
 -1       150 4.83492E+01 8.70107E-02 9.19752E+00-1.49818E+00 1.57613E-01-1.45812E+01
 -1       151-5.00248E+01 1.04926E+01-8.92981E+00 1.84587E+00 8.12543E+00-1.25609E+01
 -1       152 4.76604E+01-1.15347E+01 4.32412E+00-1.49681E+00 8.50156E+00-1.54265E+01
 -1       153-5.51661E+01 5.34664E+00 3.97272E+00-1.93266E+00 3.03997E+00 4.57272E+00
 -1       154-5.03523E-01 3.02071E-01 6.98764E-01-9.31470E-03 1.13891E-01-1.35892E+01
 -1       155 5.53040E+01-5.66516E+00-4.27403E+00 2.10181E+00 2.81081E+00 1.18411E+00
 -1       156-4.95295E+01 5.55090E+00-8.28218E+00 1.86923E+00 1.15332E-01-1.18651E+01
 -1       157 4.79658E+01-5.73571E+00 6.79966E+00-1.95483E+00 4.00531E-01-1.46155E+01
 -1       158-5.73159E+01 8.72274E+00 4.54281E+00 2.78612E-01-1.15912E+00 4.70734E+00
 -1       159-1.24243E+00-5.21609E-01-2.28277E+00 1.87680E-01 8.34515E+00-1.43582E+01
 -1       160 5.79126E+01-8.15957E+00-3.95508E+00-3.13970E-01-1.14159E+00 1.20199E+00
 -1       181 1.20189E+02 3.92541E+01 4.78044E+01-5.99520E+00-1.32857E+01 2.35649E+01
 -1       182-1.16875E+02-3.80663E+01-4.65095E+01 6.37960E+00-1.33750E+01 2.35104E+01
 -1       183-1.13762E+02 3.98516E+00 1.19595E+01 5.97477E+00 1.58510E+00 6.14469E+00
 -1       184 1.17771E+02-3.18681E+00-1.19951E+01-6.01777E+00 1.65402E+00 4.30180E+00
 -1       185 1.48112E+02 6.57519E+01 6.41094E+01-3.57307E-03 1.13731E-03-6.54817E+00
 -1       186-1.45475E+02-6.53015E+01-6.32816E+01-3.54946E-03-8.95797E-04-6.60702E+00
 -1       187-1.05612E+02 5.00834E+00 1.59394E+01-3.79508E-01-3.71945E+00 9.34295E-01
 -1       188 1.08066E+02-4.62425E+00-1.64100E+01 5.07421E-01-3.59051E+00-8.85516E-01
 -1       189 1.57381E+00 5.93479E-01 6.56333E-01 2.02591E-01-1.33305E+01 2.40863E+01
 -1       190-1.13413E+02-1.50995E+01-1.61858E+01 9.63575E+00-5.81796E+00 1.31926E+00
 -1       191 1.84729E+00 3.59538E-01-5.79928E-02-1.29487E-02 1.59175E+00 5.43709E+00
 -1       192 1.12263E+02 1.45560E+01 1.47794E+01-9.49639E+00-5.76881E+00 5.13888E-01
 -1       193 1.34653E+02 5.27211E+01 5.61744E+01-3.24178E+00-1.47697E+00 1.75907E+00
 -1       194-1.32029E+02-5.20473E+01-5.52596E+01 3.46092E+00-1.52552E+00 1.70805E+00
 -1       195-1.09624E+02 4.58865E+00 1.43383E+01 2.97913E+00-2.75387E-02 2.93602E+00
 -1       196 1.12916E+02-3.84146E+00-1.38419E+01-2.91069E+00 7.36329E-02 1.10309E+00
 -1       197 1.20704E+00 2.34607E-01 4.31026E-01-9.94639E-04-3.53687E-06-6.01512E+00
 -1       198-1.19685E+02-2.62544E+01-2.01264E+01 2.37441E+00 6.45896E-01 1.83102E+00
 -1       199 1.08819E+00 1.55903E-01-2.75670E-01 6.52343E-02-3.68267E+00 2.35026E-01
 -1       200 1.18507E+02 2.61152E+01 2.02569E+01-2.49026E+00 6.55724E-01 1.00864E+00
 -1       201-1.27114E+02-1.58030E+00-4.04516E+00 4.61351E-01 3.51507E-01 3.50675E+00
 -1       202 1.32230E+02 2.63163E+00 4.25200E+00-4.12945E-01 3.72074E-01-9.01856E-01
 -1       203-1.27744E+02-1.03185E+00-4.35485E+00 3.22780E-01-2.98008E-01 3.45853E+00
 -1       204 1.31221E+02 2.05537E+00 4.53298E+00-3.41803E-01-2.99720E-01-9.79707E-01
 -1       205-1.24920E+02 8.93858E-01 3.28563E+00 2.08678E+00-2.11551E-01 1.59279E+00
 -1       206 2.39591E+00 4.98028E-01 8.32900E-02 2.43493E-02 3.74266E-01 1.29339E+00
 -1       207 1.24260E+02-1.10406E+00-3.57859E+00-2.11760E+00-1.88108E-01-1.61865E+00
 -1       208-1.27325E+02-1.30598E+00-4.11358E+00 4.00143E-01-2.02156E-01 2.75607E+00
 -1       209 1.31032E+02 2.00253E+00 4.13786E+00-3.87717E-01-1.92312E-01-1.66715E+00
 -1       210-1.24385E+02 3.21158E-01 3.85375E+00-2.41880E-01-2.15620E-01 8.12325E-01
 -1       211 1.57597E+00 4.83605E-01 6.92865E-02-1.00321E-02-2.86373E-01 1.22408E+00
 -1       212 1.22415E+02-5.82449E-01-4.02655E+00 2.66901E-01-1.69217E-01-2.37004E+00
 -1       213-1.29087E+02 2.00667E+00 4.71954E+00-1.47290E+00 9.10436E-01 2.75617E+00
 -1       214 1.34030E+02-1.07551E+00-4.43312E+00 1.53344E+00 7.91832E-01-4.78071E+00
 -1       215-1.28652E+02 5.04774E-01 4.80087E+00-2.14069E-01-1.96986E+00 3.11403E+00
 -1       216 1.32173E+02 6.34132E-01-4.28512E+00 9.79452E-02-1.95310E+00-4.30694E+00
 -1       217-1.31365E+02 1.87105E-01 2.41773E-01-1.29626E-01-3.29861E-01 2.86682E+00
 -1       218 2.28057E+00 4.27437E-01 1.09901E-01 3.04058E-02 8.48635E-01-1.03708E+00
 -1       219 1.30753E+02-3.79105E-01-2.65366E-01 1.20582E-01-3.43698E-01-3.09311E+00
 -1       220-1.28940E+02 1.19221E+00 4.81943E+00-8.69459E-01 2.17317E-01 3.46127E+00
 -1       221 1.32864E+02-3.54951E-01-4.37109E+00 8.79792E-01 1.63270E-01-4.01190E+00
 -1       222-1.31545E+02-3.58646E-01 6.38737E-03 2.21059E-01 3.55439E-02 3.07084E+00
 -1       223 1.57657E+00 5.34038E-01 2.25399E-01-5.65082E-02-1.96398E+00-6.11352E-01
 -1       224 1.29451E+02 2.09566E-01-8.13776E-02-2.41826E-01 5.75593E-02-2.83726E+00
 -1       225-9.71009E+01 6.36273E-01 1.93743E+00-5.05515E+00-1.04448E+00-6.56013E+00
 -1       226 9.86392E+01 1.08217E-01-3.16612E-01 4.74237E+00-1.36772E+00-1.40213E+01
 -1       227-1.00266E+02-3.84330E+00 1.34571E-01-8.16530E-01-4.55714E-01-4.61391E+00
 -1       228 1.00492E+02 3.95245E+00-4.33639E-01 6.28938E-01-4.42424E-01-1.21607E+01
 -1       229-1.34793E+02-6.24508E+00-5.26711E+00-3.54717E+00-2.25039E+00 3.86319E+00
 -1       230 6.44645E-01 3.55652E-01 8.12356E-01-1.63143E-01-1.23375E+00-1.05048E+01
 -1       231 1.34055E+02 6.11016E+00 5.14170E+00 3.39577E+00-2.46809E+00-4.51738E+00
 -1       232-9.86850E+01-1.64825E+00 9.87861E-01-2.75207E+00 4.57736E-01-4.69587E+00
 -1       233 9.94406E+01 1.93289E+00-4.76276E-01 2.59747E+00 3.12930E-01-1.21954E+01
 -1       234-1.35177E+02-8.82080E+00-5.69776E+00-5.37776E-01 4.57648E-01 4.71341E+00
 -1       235-1.98894E-02 3.71546E-02-1.49924E-01-9.77516E-02-4.76813E-01-8.60978E+00
 -1       236 1.33002E+02 8.43265E+00 4.72179E+00 5.98185E-01 4.68003E-01-3.68204E+00
 -1       237-5.07557E+01 1.87123E-01-6.79943E+00 1.25646E+00-2.37048E-01-1.09133E+01
 -1       238 4.94247E+01 3.80856E-01 8.65734E+00-1.33478E+00-6.85633E-02-1.46122E+01
 -1       239-5.10733E+01 9.44843E+00-7.75244E+00 1.68666E+00 7.64653E+00-1.14773E+01
 -1       240 4.82669E+01-1.04518E+01 4.11372E+00-1.18463E+00 8.02345E+00-1.53936E+01
 -1       241-5.55505E+01 4.81828E+00 3.46695E+00-1.78492E+00 2.83277E+00 5.13763E+00
 -1       242-7.00594E-01 2.96698E-01 9.59785E-01-2.45463E-02-1.21255E-01-1.30396E+01
 -1       243 5.57827E+01-5.14041E+00-3.90252E+00 2.00583E+00 2.57251E+00 4.38286E-01
 -1       244-5.08447E+01 4.84992E+00-7.20052E+00 1.62455E+00 8.63925E-02-1.07404E+01
 -1       245 4.88929E+01-5.01321E+00 6.45082E+00-1.70901E+00 3.85249E-01-1.45446E+01
 -1       246-5.73406E+01 7.78052E+00 3.97598E+00 2.55909E-01-1.21969E+00 5.31699E+00
 -1       247-1.46648E+00-5.03420E-01-1.79661E+00 2.62793E-01 7.86669E+00-1.37414E+01
 -1       248 5.79794E+01-7.25247E+00-3.53997E+00-3.24689E-01-1.19147E+00 4.84996E-01
 -1       269 1.21062E+02 3.99751E+01 4.82818E+01-5.99341E+00-1.29960E+01 2.34622E+01
 -1       270-1.17613E+02-3.88967E+01-4.69807E+01 6.39946E+00-1.30550E+01 2.33711E+01
 -1       271-1.11836E+02 4.37931E+00 1.18377E+01 5.30406E+00 1.87738E+00 5.63560E+00
 -1       272 1.15923E+02-3.61161E+00-1.19754E+01-5.35915E+00 1.93860E+00 3.75190E+00
 -1       273 1.47545E+02 6.53087E+01 6.38070E+01-3.51533E-03 1.25763E-03-6.71599E+00
 -1       274-1.44708E+02-6.47475E+01-6.28847E+01-3.48860E-03-1.04193E-03-6.76098E+00
 -1       275-1.03854E+02 5.68968E+00 1.58149E+01-5.20934E-01-3.90344E+00 6.08313E-01
 -1       276 1.06520E+02-5.20277E+00-1.60646E+01 6.37520E-01-3.80970E+00-1.24168E+00
 -1       277 1.64115E+00 5.41672E-01 6.60354E-01 2.13147E-01-1.30256E+01 2.39346E+01
 -1       278-1.13399E+02-1.51316E+01-1.63954E+01 9.30966E+00-5.86910E+00 1.21372E+00
 -1       279 1.89217E+00 3.46088E-01-1.07313E-01-2.05018E-02 1.88404E+00 4.89533E+00
 -1       280 1.12267E+02 1.46596E+01 1.53669E+01-9.16401E+00-5.80855E+00 3.88733E-01
 -1       281 1.34751E+02 5.28366E+01 5.62386E+01-3.22730E+00-1.55722E+00 1.85667E+00
 -1       282-1.31958E+02-5.21616E+01-5.52728E+01 3.45250E+00-1.59073E+00 1.79676E+00
 -1       283-1.07767E+02 5.11373E+00 1.41579E+01 2.55377E+00-1.04054E-01 2.67536E+00
 -1       284 1.11160E+02-4.38737E+00-1.37481E+01-2.50071E+00-2.45200E-02 8.08236E-01
 -1       285 1.30913E+00 2.92901E-01 4.79040E-01-1.01193E-03-7.94278E-06-6.20910E+00
 -1       286-1.19115E+02-2.55914E+01-2.02547E+01 2.30787E+00 1.16434E+00 1.90566E+00
 -1       287 1.19847E+00 2.08515E-01-1.63701E-01 5.90238E-02-3.88042E+00-1.17309E-01
 -1       288 1.17791E+02 2.54025E+01 2.02496E+01-2.42891E+00 1.18387E+00 1.06618E+00
 -1       289-1.21934E+02-8.96085E-01-2.93054E+00-8.17733E-02 6.51208E-02 3.06849E+00
 -1       290 1.26869E+02 1.85027E+00 3.06508E+00 1.16511E-01 6.08105E-02-1.35545E+00
 -1       291-1.22674E+02-7.35719E-01-3.27960E+00 4.14773E-01-4.38554E-02 3.34033E+00
 -1       292 1.26144E+02 1.70798E+00 3.36676E+00-4.41855E-01-3.44380E-02-1.08547E+00
 -1       293-1.21640E+02 1.27255E+00 3.71696E+00 1.52727E+00-1.10475E-01 1.53643E+00
 -1       294 2.31368E+00 4.50435E-01 4.81188E-02 1.74061E-02 7.17965E-02 8.19583E-01
 -1       295 1.20907E+02-1.46864E+00-3.95016E+00-1.56592E+00-9.75576E-02-1.70494E+00
 -1       296-1.22325E+02-8.57038E-01-3.04501E+00 1.98433E-01-8.67778E-02 2.28437E+00
 -1       297 1.25968E+02 1.51675E+00 3.05482E+00-1.92092E-01-8.31149E-02-2.14289E+00
 -1       298-1.21351E+02 5.82123E-01 4.14452E+00-2.49664E-01-3.26809E-01 9.16965E-01
 -1       299 1.58239E+00 4.59827E-01 2.53255E-02-1.33569E-02-3.03131E-02 1.08496E+00
 -1       300 1.19344E+02-8.32599E-01-4.30235E+00 2.80566E-01-2.85838E-01-2.30041E+00
 -1       301-1.24613E+02 1.42901E-01-3.37464E-01 6.39232E-01 1.93477E-01 4.04140E+00
 -1       302 1.29752E+02 8.25692E-01 3.13831E-01-6.27293E-01 2.12367E-01-2.97435E+00
 -1       303-1.25349E+02 4.75570E-01-1.52961E-01-1.51723E-01-4.88717E-02 3.69885E+00
 -1       304 1.28959E+02 4.70347E-01 2.11684E-01 1.73296E-01-3.75866E-02-3.33654E+00
 -1       305-1.25048E+02-3.88029E-01-1.17138E+00 2.59196E-01 5.90487E-04 2.87573E+00
 -1       306 2.40420E+00 4.51801E-01-4.08226E-02 6.32489E-03 2.02113E-01 5.79361E-01
 -1       307 1.24434E+02 2.40255E-01 1.18962E+00-2.44569E-01 8.42622E-03-2.81070E+00
 -1       308-1.25169E+02 1.97833E-01-2.42490E-01 2.17974E-01-3.98178E-02 4.17443E+00
 -1       309 1.29153E+02 5.30953E-01 2.59477E-01-2.09054E-01-2.58363E-02-2.84817E+00
 -1       310-1.25686E+02-1.06593E-01-1.23381E+00 1.27450E-01 8.81361E-02 2.78498E+00
 -1       311 1.63764E+00 4.39543E-01-5.05032E-04 1.03734E-02-4.39970E-02 2.28777E-01
 -1       312 1.23644E+02-2.94715E-02 1.25312E+00-1.31758E-01 1.00020E-01-2.90463E+00
 -1       313-1.26918E+02 1.82170E+00 3.56247E+00-1.41750E+00 9.33871E-01 4.11020E+00
 -1       314 1.31992E+02-8.42800E-01-3.18236E+00 1.49189E+00 8.06882E-01-6.12566E+00
 -1       315-1.26408E+02 5.86821E-01 3.52483E+00-8.85880E-02-1.86349E+00 4.43073E+00
 -1       316 1.30080E+02 5.37002E-01-3.04085E+00-7.67486E-02-1.85273E+00-5.66389E+00
 -1       317-1.29879E+02 4.73854E-01 1.16326E+00 8.11726E-03-2.19565E-01 4.20320E+00
 -1       318 2.35423E+00 4.53992E-01 1.61758E-01 3.71428E-02 8.71905E-01-1.04674E+00
 -1       319 1.29122E+02-6.72188E-01-1.22665E+00-2.78244E-02-2.32506E-01-4.44521E+00
 -1       320-1.26690E+02 1.14765E+00 3.57775E+00-7.66390E-01 1.68428E-01 4.57265E+00
 -1       321 1.30699E+02-3.42093E-01-3.21062E+00 7.67700E-01 1.06938E-01-5.58424E+00
 -1       322-1.30237E+02-1.10781E-01 1.05647E+00 6.91767E-02-8.73334E-02 4.44867E+00
 -1       323 1.65994E+00 5.28933E-01 2.14644E-01-8.13710E-02-1.85661E+00-6.49623E-01
 -1       324 1.28019E+02-8.16068E-02-1.17475E+00-8.50330E-02-6.02024E-02-4.15038E+00
 -1       325-9.58381E+01 3.65278E-01 1.95273E+00-4.79896E+00-8.91540E-01-4.98569E+00
 -1       326 9.70313E+01 2.91354E-01-1.91653E-01 4.50073E+00-1.31793E+00-1.44525E+01
 -1       327-9.88526E+01-3.79062E+00 1.53060E-01-8.12047E-01-5.67784E-01-3.13265E+00
 -1       328 9.88165E+01 3.82843E+00-4.51019E-01 6.19172E-01-5.35999E-01-1.27223E+01
 -1       329-1.31778E+02-5.88762E+00-5.33255E+00-3.52529E+00-2.09904E+00 5.13447E+00
 -1       330 4.71193E-01 3.11132E-01 8.84425E-01-1.55193E-01-1.13109E+00-9.90998E+00
 -1       331 1.30897E+02 5.70338E+00 5.20956E+00 3.33866E+00-2.40023E+00-5.79003E+00
 -1       332-9.73053E+01-1.72250E+00 1.07572E+00-2.64193E+00 3.77272E-01-3.14660E+00
 -1       333 9.78947E+01 2.02068E+00-3.27889E-01 2.50679E+00 1.90428E-01-1.26751E+01
 -1       334-1.32034E+02-8.11640E+00-5.66383E+00-4.91529E-01 6.22849E-01 5.89960E+00
 -1       335-1.50369E-01 1.48786E-03-1.46683E-01-9.99437E-02-5.78348E-01-8.12456E+00
 -1       336 1.29862E+02 7.78660E+00 4.89948E+00 5.69682E-01 6.20830E-01-5.02410E+00
 -1       337-5.20495E+01-4.18702E-02-6.37727E+00 7.72474E-01-5.00621E-01-1.00915E+01
 -1       338 5.03626E+01 6.70837E-01 8.74384E+00-8.77024E-01-3.18834E-01-1.48765E+01
 -1       339-5.21393E+01 7.66845E+00-7.08915E+00 1.46874E+00 6.53543E+00-1.06169E+01
 -1       340 4.91526E+01-8.36637E+00 5.05792E+00-8.86324E-01 6.78534E+00-1.55935E+01
 -1       341-5.58755E+01 4.64919E+00 3.41982E+00-1.78359E+00 2.59139E+00 5.67671E+00
 -1       342-8.83643E-01 3.27658E-01 1.21782E+00-4.01177E-02-3.81864E-01-1.27380E+01
 -1       343 5.62855E+01-4.85591E+00-3.75541E+00 2.03314E+00 2.31856E+00-3.53840E-01
 -1       344-5.21424E+01 3.71631E+00-6.97105E+00 1.20913E+00 2.39212E-02-9.90295E+00
 -1       345 4.96740E+01-3.95951E+00 6.64945E+00-1.28422E+00 2.66560E-01-1.47938E+01
 -1       346-5.74459E+01 6.92554E+00 3.78590E+00 1.62585E-01-1.28957E+00 5.99757E+00
 -1       347-1.55498E+00-3.46602E-01-9.85998E-01 3.00655E-01 6.68839E+00-1.33848E+01
 -1       348 5.81796E+01-6.41310E+00-3.41753E+00-2.69654E-01-1.28838E+00-1.78270E-01
 -1       369 1.21486E+02 4.00593E+01 4.84338E+01-5.94950E+00-1.29423E+01 2.34663E+01
 -1       370-1.17644E+02-3.91040E+01-4.70525E+01 6.37633E+00-1.29654E+01 2.33391E+01
 -1       371-1.11271E+02 4.94216E+00 1.20499E+01 5.06848E+00 2.10742E+00 5.52447E+00
 -1       372 1.15868E+02-4.13793E+00-1.20539E+01-5.13207E+00 2.17572E+00 3.57457E+00
 -1       373 1.47466E+02 6.52428E+01 6.37634E+01-3.64941E-03 1.27001E-03-6.48861E+00
 -1       374-1.44141E+02-6.45414E+01-6.26527E+01-3.61851E-03-1.07477E-03-6.51463E+00
 -1       375-1.03155E+02 6.72069E+00 1.61121E+01-5.32951E-01-3.82963E+00 5.51630E-01
 -1       376 1.06393E+02-6.06224E+00-1.60544E+01 6.41480E-01-3.78810E+00-1.34573E+00
 -1       377 1.83853E+00 4.84028E-01 7.02007E-01 2.23441E-01-1.29540E+01 2.39050E+01
 -1       378-1.13134E+02-1.48264E+01-1.60870E+01 9.23911E+00-5.79439E+00 1.15968E+00
 -1       379 2.14839E+00 3.67187E-01-3.91561E-02-2.57259E-02 2.12132E+00 4.74192E+00
 -1       380 1.12398E+02 1.44580E+01 1.55932E+01-9.08247E+00-5.71599E+00 3.14111E-01
 -1       381 1.34884E+02 5.28291E+01 5.62761E+01-3.20745E+00-1.54646E+00 2.03328E+00
 -1       382-1.31655E+02-5.21468E+01-5.51771E+01 3.44016E+00-1.56195E+00 1.97038E+00
 -1       383-1.07199E+02 5.84172E+00 1.42514E+01 2.42383E+00-9.45671E-02 2.63255E+00
 -1       384 1.10997E+02-5.15253E+00-1.39467E+01-2.38364E+00-3.75064E-02 7.09650E-01
 -1       385 1.55568E+00 3.67066E-01 5.74980E-01-1.15261E-03-1.18980E-05-5.98987E+00
 -1       386-1.18756E+02-2.50639E+01-2.02112E+01 2.31637E+00 1.23702E+00 1.93311E+00
 -1       387 1.48592E+00 2.96846E-01-8.73618E-03 5.46334E-02-3.82904E+00-2.06729E-01
 -1       388 1.17594E+02 2.48404E+01 2.00633E+01-2.44485E+00 1.26122E+00 1.07136E+00
 -1       389-1.20014E+02-9.63042E-01-3.08531E+00-4.21196E-01 8.87195E-02 2.58073E+00
 -1       390 1.25239E+02 1.89104E+00 3.17989E+00 4.52561E-01 6.76124E-02-1.88621E+00
 -1       391-1.20797E+02-7.53088E-01-3.42251E+00 3.45776E-01-3.21164E-02 3.00460E+00
 -1       392 1.24629E+02 1.69679E+00 3.47958E+00-3.80516E-01-1.20896E-02-1.46255E+00
 -1       393-1.21136E+02 1.28882E+00 3.49247E+00 1.15925E+00-6.20491E-02 1.54008E+00
 -1       394 2.46401E+00 4.37620E-01 2.90478E-02 1.51810E-02 8.66370E-02 3.08529E-01
 -1       395 1.20657E+02-1.46191E+00-3.64120E+00-1.20467E+00-5.22562E-02-1.76672E+00
 -1       396-1.20384E+02-8.70096E-01-3.14432E+00-1.58054E-02-9.68274E-02 2.00849E+00
 -1       397 1.24412E+02 1.54968E+00 3.20706E+00 1.44026E-02-9.65372E-02-2.45773E+00
 -1       398-1.20747E+02 8.68387E-01 3.95199E+00-3.14383E-01-2.37260E-01 9.83385E-01
 -1       399 1.76752E+00 4.45439E-01 1.07912E-02-1.72380E-02-1.36315E-02 7.28152E-01
 -1       400 1.18976E+02-1.09133E+00-4.05017E+00 3.56916E-01-2.14378E-01-2.30443E+00
 -1       401-1.19539E+02 7.91864E-01 7.74803E-01 2.20263E-01-5.37114E-03 3.63818E+00
 -1       402 1.24755E+02 1.17695E-01-7.57386E-01-2.26391E-01-5.30911E-03-3.32037E+00
 -1       403-1.20283E+02 7.35164E-01 8.46707E-01-6.29734E-02 4.73387E-02 3.60942E+00
 -1       404 1.24125E+02 1.68888E-01-8.14270E-01 8.17915E-02 5.65893E-02-3.35052E+00
 -1       405-1.21687E+02-2.23546E-01-7.92194E-01-5.29356E-02 4.22733E-03 2.90214E+00
 -1       406 2.45038E+00 4.23922E-01-1.84875E-02-2.86275E-03-7.71512E-03 1.77548E-01
 -1       407 1.21301E+02 6.33605E-02 7.92519E-01 6.58310E-02-3.79893E-03-2.78263E+00
 -1       408-1.20203E+02 6.07418E-01 7.55092E-01 7.75353E-02 4.23526E-02 3.74660E+00
 -1       409 1.24325E+02 6.37571E-02-7.65113E-01-7.05921E-02 4.69394E-02-3.21333E+00
 -1       410-1.22404E+02-1.27779E-01-9.07892E-01 1.43061E-01 2.87954E-02 2.89708E+00
 -1       411 1.76304E+00 4.21182E-01-1.11487E-02 9.44463E-03 4.96059E-02 1.49904E-01
 -1       412 1.20669E+02-1.46785E-02 9.05208E-01-1.51292E-01 4.45254E-02-2.78748E+00
 -1       413-1.22882E+02-1.76109E-01-1.35582E+00 4.11045E-01 6.36919E-02 5.12931E+00
 -1       414 1.28363E+02 1.11651E+00 1.28689E+00-3.93462E-01 7.65339E-02-4.42741E+00
 -1       415-1.23490E+02 8.20368E-02-1.24163E+00 1.14550E-02 2.65454E-02 4.93391E+00
 -1       416 1.27485E+02 8.43476E-01 1.22057E+00-9.01271E-03 5.96006E-02-4.63303E+00
 -1       417-1.23915E+02-1.77444E-01-2.29729E-01 3.04517E-01 1.50619E-02 4.09522E+00
 -1       418 2.58173E+00 4.39277E-01-6.04396E-02 9.22844E-03 7.07766E-02 3.76614E-01
 -1       419 1.23478E+02 6.40004E-03 1.69790E-01-3.03868E-01 2.07335E-02-4.15084E+00
 -1       420-1.23322E+02-1.18487E-01-1.22083E+00 1.95535E-01-3.07498E-02 5.04361E+00
 -1       421 1.27679E+02 8.62377E-01 1.28545E+00-1.91571E-01-8.71873E-03-4.51961E+00
 -1       422-1.24648E+02-1.06041E-01-1.78247E-01-2.42129E-02-2.31172E-02 4.05964E+00
 -1       423 1.83814E+00 4.31317E-01-3.68080E-02 9.17564E-04 4.37903E-02 1.75027E-01
 -1       424 1.22798E+02-7.81114E-02 1.22400E-01 2.51346E-02-9.33048E-04-4.19423E+00
 -1       425-1.22974E+02 1.98959E+00 3.82090E+00-8.36789E-01 9.85407E-01 5.28594E+00
 -1       426 1.28524E+02-8.13128E-01-2.93749E+00 9.16958E-01 9.16893E-01-7.46371E+00
 -1       427-1.22874E+02 1.03871E+00 3.67117E+00-1.71985E-01-1.72571E+00 5.32765E+00
 -1       428 1.26871E+02 1.55884E-01-2.85258E+00-1.12795E-02-1.78295E+00-7.27857E+00
 -1       429-1.26554E+02 5.19218E-01 9.40535E-01-6.35040E-02-1.25765E-01 5.49603E+00
 -1       430 2.60103E+00 5.57654E-01 4.16382E-01 3.96065E-02 9.53505E-01-1.12477E+00
 -1       431 1.26066E+02-6.83111E-01-8.85089E-01 5.02738E-02-1.31070E-01-5.65570E+00
 -1       432-1.22954E+02 1.38741E+00 3.54136E+00-5.17066E-01 8.78387E-02 5.88114E+00
 -1       433 1.27256E+02-6.32061E-01-3.27847E+00 5.06179E-01 2.12837E-02-6.77027E+00
 -1       434-1.27036E+02 5.87232E-02 7.87140E-01 1.88137E-02-1.14787E-01 5.63170E+00
 -1       435 1.82908E+00 5.68435E-01 3.84671E-01-9.05223E-02-1.75207E+00-1.00821E+00
 -1       436 1.25152E+02-2.00059E-01-7.60701E-01-3.91957E-02-1.19884E-01-5.47674E+00
 -1       437-9.46815E+01-4.63250E-01 9.85297E-01-6.47975E+00 4.71293E-01-4.45393E+00
 -1       438 9.58252E+01 1.13612E+00 1.22434E+00 6.43272E+00-3.30262E-01-1.57592E+01
 -1       439-9.48501E+01-3.55167E+00-4.02700E-01-9.62315E-01-3.14215E+00-2.61906E+00
 -1       440 9.44983E+01 3.21721E+00-1.07532E-01 4.22388E-01-2.88494E+00-1.37692E+01
 -1       441-1.28674E+02-5.43993E+00-5.73336E+00-3.57869E+00-1.86096E+00 6.48054E+00
 -1       442 4.49898E-01 3.06215E-01 1.10414E+00-2.63444E-02 5.70090E-02-1.02541E+01
 -1       443 1.27776E+02 5.02266E+00 5.05068E+00 3.35177E+00-2.27864E+00-6.80005E+00
 -1       444-9.40827E+01-1.59445E+00 1.07552E+00-3.67211E+00-2.79133E-01-1.94321E+00
 -1       445 9.53106E+01 2.36291E+00 1.12042E+00 3.51328E+00-5.53313E-01-1.32040E+01
 -1       446-1.27902E+02-7.01744E+00-5.78783E+00-3.28731E-01 8.15741E-01 7.43135E+00
 -1       447-2.98955E-01-1.96863E-01-2.57422E-01-2.72574E-01-3.02698E+00-8.34129E+00
 -1       448 1.26048E+02 6.54567E+00 4.70630E+00 4.52526E-01 8.86034E-01-5.76134E+00
 -1       449-5.36932E+01-1.37569E+01-2.73611E-01-8.50094E+00-4.83288E+00-1.21652E+01
 -1       450 5.47167E+01 1.67861E+01 1.44230E+01 7.84586E+00-5.26911E+00-1.79841E+01
 -1       451-5.57355E+01-1.83600E+01-5.94420E+00-9.80387E-01 4.60167E-05-9.70347E+00
 -1       452 5.41395E+01 1.90629E+01 1.13504E+01 7.63389E-01-7.69156E-01-1.57388E+01
 -1       453-5.55232E+01 3.21407E-02 4.75536E+00-7.63451E+00-2.16391E-01 4.22985E+00
 -1       454 5.15803E-01 1.59518E+00 7.13494E+00-3.12846E-01-5.05135E+00-1.52457E+01
 -1       455 5.63256E+01 1.17950E-01-3.94937E+00 7.63450E+00-1.09581E+00-3.06495E+00
 -1       456-5.58362E+01-1.74717E+01-6.70868E+00-4.66567E+00-1.33063E+00-9.03086E+00
 -1       457 5.28689E+01 1.63318E+01 9.12562E+00 4.38328E+00-1.93279E+00-1.50813E+01
 -1       458-5.54793E+01-2.49971E+00 4.38016E+00-8.34029E-01 1.52172E-01 6.29121E+00
 -1       459-8.06563E-01 4.27735E-01 2.75887E+00-1.01782E-01-3.84484E-01-1.28981E+01
 -1       460 5.69023E+01 3.76611E+00-2.85626E+00 8.03912E-01-3.36080E-01-9.50281E-01
 -3
    1PSTEP                         6          87           1          
  100CL  102 1.000000000         110                     0    2           1
 -4  CONTACT     6    1
 -5  COPEN       1    4    1    1
 -5  CSLIP1      1    4    2    2
 -5  CSLIP2      1    4    3    3
 -5  CPRESS      1    4    1    2
 -5  CSHEAR1     1    4    2    3
 -5  CSHEAR2     1    4    3    1
 -1       348 0.00000E+00 0.00000E+00 0.00000E+00-1.00000E-03 0.00000E+00 0.00000E+00
 -1       345-7.82216E-07 0.00000E+00 0.00000E+00 7.81216E-01 0.00000E+00 0.00000E+00
 -1       343 0.00000E+00 0.00000E+00 0.00000E+00-1.00000E-03 0.00000E+00 0.00000E+00
 -1       340-8.45044E-06 0.00000E+00 0.00000E+00 8.44944E+00 0.00000E+00 0.00000E+00
 -1       338 0.00000E+00 0.00000E+00 0.00000E+00-1.00000E-03 0.00000E+00 0.00000E+00
 -1       336 0.00000E+00 0.00000E+00 0.00000E+00-1.00000E-03 0.00000E+00 0.00000E+00
 -1       333 0.00000E+00 0.00000E+00 0.00000E+00-1.00000E-03 0.00000E+00 0.00000E+00
 -1       331 0.00000E+00 0.00000E+00 0.00000E+00-1.00000E-03 0.00000E+00 0.00000E+00
 -1       328 0.00000E+00 0.00000E+00 0.00000E+00-1.00000E-03 0.00000E+00 0.00000E+00
 -1       326 0.00000E+00 0.00000E+00 0.00000E+00-1.00000E-03 0.00000E+00 0.00000E+00
 -1       324 0.00000E+00 0.00000E+00 0.00000E+00-1.00000E-03 0.00000E+00 0.00000E+00
 -1       321 0.00000E+00 0.00000E+00 0.00000E+00-1.00000E-03 0.00000E+00 0.00000E+00
 -1       319 0.00000E+00 0.00000E+00 0.00000E+00-1.00000E-03 0.00000E+00 0.00000E+00
 -1       316 0.00000E+00 0.00000E+00 0.00000E+00-1.00000E-03 0.00000E+00 0.00000E+00
 -1       314 0.00000E+00 0.00000E+00 0.00000E+00-1.00000E-03 0.00000E+00 0.00000E+00
 -1       312 0.00000E+00 0.00000E+00 0.00000E+00-1.00000E-03 0.00000E+00 0.00000E+00
 -1       309 0.00000E+00 0.00000E+00 0.00000E+00-1.00000E-03 0.00000E+00 0.00000E+00
 -1       307 0.00000E+00 0.00000E+00 0.00000E+00-1.00000E-03 0.00000E+00 0.00000E+00
 -1       304 0.00000E+00 0.00000E+00 0.00000E+00-1.00000E-03 0.00000E+00 0.00000E+00
 -1       302 0.00000E+00 0.00000E+00 0.00000E+00-1.00000E-03 0.00000E+00 0.00000E+00
 -1       300 0.00000E+00 0.00000E+00 0.00000E+00-1.00000E-03 0.00000E+00 0.00000E+00
 -1       297 0.00000E+00 0.00000E+00 0.00000E+00-1.00000E-03 0.00000E+00 0.00000E+00
 -1       295 0.00000E+00 0.00000E+00 0.00000E+00-1.00000E-03 0.00000E+00 0.00000E+00
 -1       292 0.00000E+00 0.00000E+00 0.00000E+00-1.00000E-03 0.00000E+00 0.00000E+00
 -1       290 0.00000E+00 0.00000E+00 0.00000E+00-1.00000E-03 0.00000E+00 0.00000E+00
 -1       288 0.00000E+00 0.00000E+00 0.00000E+00-1.00000E-03 0.00000E+00 0.00000E+00
 -1       284 0.00000E+00 0.00000E+00 0.00000E+00-1.00000E-03 0.00000E+00 0.00000E+00
 -1       281-5.81624E-20 0.00000E+00 0.00000E+00 2.90812E-14 0.00000E+00 0.00000E+00
 -1       280-1.08397E-07 0.00000E+00 0.00000E+00 1.07397E-01 0.00000E+00 0.00000E+00
 -1       276-3.71837E-09 0.00000E+00 0.00000E+00 2.88806E-03 0.00000E+00 0.00000E+00
 -1       273 0.00000E+00 0.00000E+00 0.00000E+00-9.60743E-14 0.00000E+00 0.00000E+00
 -1       272-3.86496E-07 0.00000E+00 0.00000E+00 3.85496E-01 0.00000E+00 0.00000E+00
 -1       269-6.88502E-19 0.00000E+00 0.00000E+00 3.44251E-13 0.00000E+00 0.00000E+00
 -1       248 0.00000E+00 0.00000E+00 0.00000E+00-1.00000E-03 0.00000E+00 0.00000E+00
 -1       245-7.72441E-07 0.00000E+00 0.00000E+00 7.71441E-01 0.00000E+00 0.00000E+00
 -1       243 0.00000E+00 0.00000E+00 0.00000E+00-1.00000E-03 0.00000E+00 0.00000E+00
 -1       240-1.07982E-05 0.00000E+00 0.00000E+00 1.07972E+01 0.00000E+00 0.00000E+00
 -1       238 0.00000E+00 0.00000E+00 0.00000E+00-1.00000E-03 0.00000E+00 0.00000E+00
 -1       236 0.00000E+00 0.00000E+00 0.00000E+00-1.00000E-03 0.00000E+00 0.00000E+00
 -1       233 0.00000E+00 0.00000E+00 0.00000E+00-1.00000E-03 0.00000E+00 0.00000E+00
 -1       231 0.00000E+00 0.00000E+00 0.00000E+00-1.00000E-03 0.00000E+00 0.00000E+00
 -1       228 0.00000E+00 0.00000E+00 0.00000E+00-1.00000E-03 0.00000E+00 0.00000E+00
 -1       226 0.00000E+00 0.00000E+00 0.00000E+00-1.00000E-03 0.00000E+00 0.00000E+00
 -1       224 0.00000E+00 0.00000E+00 0.00000E+00-1.00000E-03 0.00000E+00 0.00000E+00
 -1       221 0.00000E+00 0.00000E+00 0.00000E+00-1.00000E-03 0.00000E+00 0.00000E+00
 -1       219 0.00000E+00 0.00000E+00 0.00000E+00-1.00000E-03 0.00000E+00 0.00000E+00
 -1       216 0.00000E+00 0.00000E+00 0.00000E+00-1.00000E-03 0.00000E+00 0.00000E+00
 -1       214 0.00000E+00 0.00000E+00 0.00000E+00-1.00000E-03 0.00000E+00 0.00000E+00
 -1       212 0.00000E+00 0.00000E+00 0.00000E+00-1.00000E-03 0.00000E+00 0.00000E+00
 -1       209 0.00000E+00 0.00000E+00 0.00000E+00-1.00000E-03 0.00000E+00 0.00000E+00
 -1       207 0.00000E+00 0.00000E+00 0.00000E+00-1.00000E-03 0.00000E+00 0.00000E+00
 -1       204 0.00000E+00 0.00000E+00 0.00000E+00-1.00000E-03 0.00000E+00 0.00000E+00
 -1       202 0.00000E+00 0.00000E+00 0.00000E+00-1.00000E-03 0.00000E+00 0.00000E+00
 -1       200 0.00000E+00 0.00000E+00 0.00000E+00-1.00000E-03 0.00000E+00 0.00000E+00
 -1       196 0.00000E+00 0.00000E+00 0.00000E+00-1.00000E-03 0.00000E+00 0.00000E+00
 -1       193-5.15669E-20 0.00000E+00 0.00000E+00 2.57835E-14 0.00000E+00 0.00000E+00
 -1       192-2.48079E-07 0.00000E+00 0.00000E+00 2.47079E-01 0.00000E+00 0.00000E+00
 -1       188 0.00000E+00 0.00000E+00 0.00000E+00-1.00000E-03 0.00000E+00 0.00000E+00
 -1       185 0.00000E+00 0.00000E+00 0.00000E+00-1.77645E-09 0.00000E+00 0.00000E+00
 -1       184 0.00000E+00 0.00000E+00 0.00000E+00-1.00000E-03 0.00000E+00 0.00000E+00
 -1       181 0.00000E+00 0.00000E+00 0.00000E+00-1.77602E-09 0.00000E+00 0.00000E+00
 -1       160 0.00000E+00 0.00000E+00 0.00000E+00-1.00000E-03 0.00000E+00 0.00000E+00
 -1       157-8.83461E-07 0.00000E+00 0.00000E+00 8.82461E-01 0.00000E+00 0.00000E+00
 -1       155 0.00000E+00 0.00000E+00 0.00000E+00-1.00000E-03 0.00000E+00 0.00000E+00
 -1       152-1.19597E-05 0.00000E+00 0.00000E+00 1.19587E+01 0.00000E+00 0.00000E+00
 -1       150 0.00000E+00 0.00000E+00 0.00000E+00-1.00000E-03 0.00000E+00 0.00000E+00
 -1       148 0.00000E+00 0.00000E+00 0.00000E+00-1.00000E-03 0.00000E+00 0.00000E+00
 -1       145 0.00000E+00 0.00000E+00 0.00000E+00-1.00000E-03 0.00000E+00 0.00000E+00
 -1       143 0.00000E+00 0.00000E+00 0.00000E+00-1.00000E-03 0.00000E+00 0.00000E+00
 -1       140 0.00000E+00 0.00000E+00 0.00000E+00-1.00000E-03 0.00000E+00 0.00000E+00
 -1       138 0.00000E+00 0.00000E+00 0.00000E+00-1.00000E-03 0.00000E+00 0.00000E+00
 -1       136 0.00000E+00 0.00000E+00 0.00000E+00-1.00000E-03 0.00000E+00 0.00000E+00
 -1       133 0.00000E+00 0.00000E+00 0.00000E+00-1.00000E-03 0.00000E+00 0.00000E+00
 -1       131 0.00000E+00 0.00000E+00 0.00000E+00-1.00000E-03 0.00000E+00 0.00000E+00
 -1       128 0.00000E+00 0.00000E+00 0.00000E+00-1.00000E-03 0.00000E+00 0.00000E+00
 -1       126 0.00000E+00 0.00000E+00 0.00000E+00-1.00000E-03 0.00000E+00 0.00000E+00
 -1       124 0.00000E+00 0.00000E+00 0.00000E+00-1.00000E-03 0.00000E+00 0.00000E+00
 -1       120 0.00000E+00 0.00000E+00 0.00000E+00-1.00000E-03 0.00000E+00 0.00000E+00
 -1       117 0.00000E+00 0.00000E+00 0.00000E+00-1.77633E-09 0.00000E+00 0.00000E+00
 -1       116-2.89238E-07 0.00000E+00 0.00000E+00 2.88238E-01 0.00000E+00 0.00000E+00
 -1       112 0.00000E+00 0.00000E+00 0.00000E+00-1.00000E-03 0.00000E+00 0.00000E+00
 -1       109 0.00000E+00 0.00000E+00 0.00000E+00-1.77645E-09 0.00000E+00 0.00000E+00
 -1       108 0.00000E+00 0.00000E+00 0.00000E+00-1.00000E-03 0.00000E+00 0.00000E+00
 -1       105 0.00000E+00 0.00000E+00 0.00000E+00-1.77603E-09 0.00000E+00 0.00000E+00
 -1        84 0.00000E+00 0.00000E+00 0.00000E+00-1.00000E-03 0.00000E+00 0.00000E+00
 -1        81-1.18454E-06 0.00000E+00 0.00000E+00 1.18354E+00 0.00000E+00 0.00000E+00
 -1        79 0.00000E+00 0.00000E+00 0.00000E+00-1.00000E-03 0.00000E+00 0.00000E+00
 -1        76-1.36177E-05 0.00000E+00 0.00000E+00 1.36167E+01 0.00000E+00 0.00000E+00
 -1        74 0.00000E+00 0.00000E+00 0.00000E+00-1.00000E-03 0.00000E+00 0.00000E+00
 -1        72 0.00000E+00 0.00000E+00 0.00000E+00-1.00000E-03 0.00000E+00 0.00000E+00
 -1        69 0.00000E+00 0.00000E+00 0.00000E+00-1.00000E-03 0.00000E+00 0.00000E+00
 -1        67 0.00000E+00 0.00000E+00 0.00000E+00-1.00000E-03 0.00000E+00 0.00000E+00
 -1        64 0.00000E+00 0.00000E+00 0.00000E+00-1.00000E-03 0.00000E+00 0.00000E+00
 -1        62 0.00000E+00 0.00000E+00 0.00000E+00-1.00000E-03 0.00000E+00 0.00000E+00
 -1        60 0.00000E+00 0.00000E+00 0.00000E+00-1.00000E-03 0.00000E+00 0.00000E+00
 -1        56 0.00000E+00 0.00000E+00 0.00000E+00-1.00000E-03 0.00000E+00 0.00000E+00
 -1        53-5.13185E-20 0.00000E+00 0.00000E+00 2.56592E-14 0.00000E+00 0.00000E+00
 -1        52-2.57084E-07 0.00000E+00 0.00000E+00 2.56084E-01 0.00000E+00 0.00000E+00
 -1        48 0.00000E+00 0.00000E+00 0.00000E+00-1.00000E-03 0.00000E+00 0.00000E+00
 -1        45 0.00000E+00 0.00000E+00 0.00000E+00-8.14399E-14 0.00000E+00 0.00000E+00
 -1        44 0.00000E+00 0.00000E+00 0.00000E+00-1.00000E-03 0.00000E+00 0.00000E+00
 -1        41 0.00000E+00 0.00000E+00 0.00000E+00-1.77604E-09 0.00000E+00 0.00000E+00
 -1        20 0.00000E+00 0.00000E+00 0.00000E+00-1.00000E-03 0.00000E+00 0.00000E+00
 -1        16-2.71804E-07 0.00000E+00 0.00000E+00 2.70804E-01 0.00000E+00 0.00000E+00
 -1        13-1.21204E-19 0.00000E+00 0.00000E+00 6.06021E-14 0.00000E+00 0.00000E+00
 -1        12 0.00000E+00 0.00000E+00 0.00000E+00-1.00000E-03 0.00000E+00 0.00000E+00
 -1         8-2.11816E-05 0.00000E+00 0.00000E+00 2.11806E+01 0.00000E+00 0.00000E+00
 -1         5 0.00000E+00 0.00000E+00 0.00000E+00-8.88215E-10 0.00000E+00 0.00000E+00
 -1         4-1.22428E-05 0.00000E+00 0.00000E+00 1.22418E+01 0.00000E+00 0.00000E+00
 -1         1 0.00000E+00 0.00000E+00 0.00000E+00-1.77600E-09 0.00000E+00 0.00000E+00
 -3
 9999
